z in mm,sigma xx in mm2,sigma xy in mm2,ysigma yx in mm2,sigma yy in mm2
0.0,170.92369404407842,10.98519834534803,10.98519834534803,142.17218908485535
0.7166123778501629,171.83420302299814,10.578955649933135,10.57895564993313,141.9800240784382
1.4332247557003257,173.97580986540834,11.446165091528856,11.446165091528856,143.85766058796284
2.1498371335504887,173.62569885102073,11.47420057318836,11.474200573188364,141.9261558192194
2.8664495114006514,172.78840642072984,11.393121113217033,11.393121113217033,141.4084000348829
3.583061889250814,174.3954847601818,11.18413185654846,11.184131856548461,144.42755083780648
4.299674267100977,174.9738472926272,11.005271561995038,11.005271561995038,143.6426967648511
5.01628664495114,175.1223133686151,10.812286918071875,10.812286918071875,148.18706965133134
5.732899022801303,175.17308254340438,11.159897594635646,11.159897594635643,148.3098791192547
6.449511400651466,176.78453052666134,11.4657045071525,11.465704507152502,147.49657281963582
7.166123778501628,177.97736274915601,10.05170415930829,10.05170415930829,148.96492246597634
7.8827361563517915,176.84215872824188,10.43891396143318,10.43891396143318,149.32076058282064
8.599348534201955,177.92601968077597,11.943357072775497,11.943357072775497,149.1260077932553
9.315960912052118,177.15848080799935,11.028885385780518,11.028885385780518,146.28194066446434
10.03257328990228,177.25174801107386,10.681369278339266,10.681369278339265,148.28317101110608
10.749185667752442,175.74046322572883,11.632755250150392,11.632755250150392,146.70215390832462
11.465798045602606,177.66673259601848,10.589808999682996,10.589808999683,147.06677260184702
12.182410423452769,180.64188062646434,10.308395009999561,10.30839500999956,150.07182039005158
12.899022801302932,178.87049194292283,10.370780114354584,10.370780114354584,147.80102681529516
13.615635179153093,181.6883336989862,9.757258760576121,9.757258760576125,151.64672782413228
14.332247557003257,178.9656964088196,10.434704673537247,10.434704673537247,150.0870746795333
15.04885993485342,180.28506870791614,10.625584609606433,10.625584609606436,151.16883158086213
15.765472312703583,181.25145866093976,11.348413359208276,11.34841335920828,149.95527432026216
16.482084690553744,179.77895202268297,10.421568730796585,10.421568730796583,150.9905869950465
17.19869706840391,180.76478548970377,10.892395079959611,10.892395079959611,149.69696441101962
17.91530944625407,180.49176788717944,10.388409228862686,10.388409228862685,150.29515931453943
18.631921824104236,180.339268970345,10.012566457682524,10.012566457682528,151.4012692574682
19.348534201954397,180.64948317380674,11.024849063301817,11.024849063301815,151.4019711058754
20.06514657980456,181.2069893698173,10.339933750234604,10.339933750234604,150.9714595975662
20.781758957654723,181.60523387821405,10.665958304012202,10.665958304012205,150.48216491191616
21.498371335504885,181.2811284424425,10.190048071332479,10.19004807133248,152.84206904218357
22.21498371335505,179.20081951667112,10.728810226078563,10.728810226078565,150.19720127392537
22.93159609120521,180.82126656566692,10.420862597044684,10.420862597044684,151.66016711616948
23.648208469055373,179.49270989376691,11.187767698734424,11.187767698734433,150.723372055853
24.364820846905538,181.8005697622457,10.879333372836513,10.879333372836513,155.06331220453794
25.0814332247557,182.73539625717106,10.651591629531268,10.651591629531268,154.11099103600918
25.798045602605864,182.87605512399327,10.5536608039266,10.5536608039266,153.27530782108667
26.514657980456025,179.8641009098357,10.136139658656917,10.136139658656917,152.46848042681697
27.231270358306187,181.42916628355795,10.223648178393477,10.223648178393479,156.16029772690698
27.94788273615635,183.360698255725,10.277098156002433,10.27709815600243,156.06402314353173
28.664495114006513,183.3254130708135,10.683656329583453,10.683656329583451,154.38557361896983
29.381107491856678,181.38501703690352,10.53374148029264,10.533741480292635,156.01869748241427
30.09771986970684,183.20619932955205,10.152785934408314,10.152785934408316,157.51479256546907
30.814332247557,184.06144595344975,10.665275691415893,10.665275691415893,158.07452883339582
31.530944625407166,184.24631312303657,10.634615107702295,10.634615107702297,158.13687300011125
32.24755700325733,183.6840714390121,11.156007246155719,11.156007246155719,158.61276907874597
32.96416938110749,183.47505770538913,10.868979064216397,10.8689790642164,156.3351352464938
33.68078175895766,182.30682370780053,10.71448599081078,10.714485990810779,156.21825800526884
34.39739413680782,185.28972674194563,11.042250784147392,11.042250784147392,159.14988975261747
35.11400651465798,184.32003209360036,10.398450287097223,10.398450287097225,159.771581430644
35.83061889250814,183.6821931973701,10.74705197770403,10.747051977704027,156.12949105330827
36.5472312703583,184.61060820911453,10.358667765901318,10.358667765901322,158.174136766814
37.26384364820847,184.80186158138406,10.300750274206788,10.300750274206791,156.86801637725944
37.98045602605863,183.8711999454562,10.276969499747906,10.276969499747906,159.48369288006393
38.697068403908794,185.27351603651456,9.905565165167044,9.905565165167042,157.2900333960388
39.413680781758956,185.27450665472333,9.678201870323997,9.678201870324,155.90220096418244
40.13029315960912,187.5019947918362,10.326928627689309,10.326928627689313,161.19666904550488
40.846905537459286,187.7474917123801,10.07200882529287,10.072008825292874,159.7639756949412
41.56351791530945,187.37815160284768,9.978612727524858,9.978612727524862,158.9564324813648
42.28013029315961,185.531784751496,10.990656479191534,10.990656479191534,156.97993827822035
42.99674267100977,187.00499704376435,9.801401494802217,9.801401494802217,159.61660228319343
43.71335504885993,187.26399146177977,10.39054310419503,10.390543104195029,160.59735023757702
44.4299674267101,185.55194836443803,10.054576140184208,10.054576140184208,158.61141482877153
45.14657980456026,187.47619135960392,10.999616137938304,10.999616137938304,160.40570332907413
45.86319218241042,187.17850239980032,10.579831025973554,10.579831025973554,158.84841732811944
46.579804560260584,186.8792384694934,10.367848045397443,10.36784804539744,156.79875828210058
47.296416938110745,185.7089733558841,10.689405112893446,10.689405112893446,158.89686684592854
48.013029315960914,187.91716530160244,10.367912258969078,10.36791225896908,158.96094059727892
48.729641693811075,185.75641689093567,10.55208481575036,10.55208481575036,159.65505951651298
49.44625407166124,186.46415382856054,10.534162318929086,10.534162318929088,159.6713041662206
50.1628664495114,188.92673137349195,9.552397553580752,9.552397553580754,160.8377605811356
50.87947882736156,188.85751392473287,9.893931318433019,9.893931318433022,165.89929352789403
51.59609120521173,187.2973546388834,10.333690036583299,10.333690036583302,163.92154423728263
52.31270358306189,188.207800664364,10.223246485442296,10.223246485442296,162.3688696815099
53.02931596091205,190.03139994567096,10.059756053058615,10.059756053058612,165.00130831375748
53.74592833876221,189.47696196404115,10.586505914631996,10.586505914631996,163.10135015117814
54.462540716612374,189.35091081107902,9.739268234662807,9.739268234662811,164.4612785805497
55.17915309446254,189.68158846436629,10.12255087183921,10.12255087183921,164.33502041264958
55.8957654723127,189.25744839687476,10.532258185452589,10.532258185452585,166.04307508527427
56.612377850162865,188.76820496949384,10.17593540486329,10.175935404863294,164.8539786293512
57.328990228013026,190.06294243845858,9.687847700503124,9.687847700503124,165.71157559491965
58.04560260586319,190.29539330669175,10.338045244232152,10.338045244232152,163.30141184690723
58.762214983713356,188.85017763760152,9.93935543095668,9.93935543095668,164.98388758268766
59.47882736156352,190.36299096580748,9.310296633279457,9.310296633279455,164.52776800995323
60.19543973941368,192.59373646721343,9.305691409590809,9.305691409590809,165.03375399958128
60.91205211726384,192.30290730534392,9.303185623739104,9.303185623739102,166.4324901420803
61.628664495114,191.89146459970326,10.291200071276924,10.291200071276922,167.0561308470823
62.34527687296417,192.51644302041672,9.332865164840626,9.332865164840626,167.1475301849993
63.06188925081433,192.3428417639589,9.519514864547075,9.519514864547077,167.37627303823092
63.77850162866449,192.55690683153074,9.60164435966176,9.60164435966176,168.6387537615788
64.49511400651465,193.05277229973728,9.276130842472444,9.276130842472446,166.4663583167249
65.21172638436482,193.29320541311677,9.18168966943915,9.18168966943915,165.19720941345363
65.92833876221498,192.78505873712984,9.338748030304338,9.338748030304341,168.00065793957842
66.64495114006515,194.0740451134451,9.77412923163047,9.77412923163047,168.95758722361072
67.36156351791531,193.84517657698558,8.540195742244611,8.540195742244611,171.45928441794806
68.07817589576547,192.9380428736776,9.567103230649977,9.567103230649982,167.31128254515417
68.79478827361564,192.77049699942322,9.604945539923238,9.604945539923234,168.25350459544694
69.51140065146579,193.7711579091857,8.876397370680568,8.876397370680564,171.18934751715395
70.22801302931596,195.06980948695107,8.037289229069183,8.037289229069183,170.30540132838956
70.94462540716613,194.92258419691922,8.651907522272273,8.65190752227227,170.858122098989
71.66123778501628,195.69020485642372,8.704285484267658,8.704285484267661,170.7458282348472
72.37785016286645,194.4089343876392,8.222506817234269,8.222506817234269,171.61589259330546
73.0944625407166,195.60796066746755,7.667942718041211,7.667942718041211,170.4836822751859
73.81107491856677,196.23999412155365,8.118692498367922,8.118692498367922,170.97443596278566
74.52768729641694,195.0059769503585,9.02261708584898,9.022617085848978,172.7975347881512
75.2442996742671,195.09383709590523,9.080708873442507,9.080708873442507,172.6376976347828
75.96091205211727,194.29838103473236,8.731286459556522,8.731286459556522,172.02883075212927
76.67752442996742,195.40470514905604,9.47746409277325,9.477464092773252,171.83919995306485
77.39413680781759,195.58134131628222,8.412575294008684,8.41257529400868,172.5278056371184
78.11074918566776,195.85938670086378,8.568044892427691,8.568044892427688,171.68751730843823
78.82736156351791,196.13466966508366,8.310890114848489,8.310890114848485,172.94898919604967
79.54397394136808,195.99152397530835,7.724639221934372,7.724639221934374,174.30361282689276
80.26058631921823,196.80039727778993,7.742949882022032,7.74294988202203,173.2213506443364
80.9771986970684,197.75211456902232,7.165345603578248,7.16534560357825,174.86567620861794
81.69381107491857,196.2751930902979,7.776422416993404,7.776422416993406,173.96915756802986
82.41042345276873,196.6597701732627,8.562671774955454,8.562671774955458,174.05769874576237
83.1270358306189,197.18373331906105,7.687818190725591,7.687818190725591,174.57971154168914
83.84364820846905,198.0006452096635,8.430054546191812,8.430054546191812,174.28222992024592
84.56026058631922,197.0906738825004,7.786202301126245,7.786202301126247,174.595172057339
85.27687296416939,197.30376789664578,7.22755937893517,7.227559378935168,175.85488422807194
85.99348534201954,198.15235491565676,7.673932799477453,7.673932799477451,175.57345979751778
86.71009771986971,198.5597032774178,7.364876368726002,7.364876368726001,175.4348617047306
87.42671009771986,196.1058971131645,7.22046615427414,7.220466154274139,176.2391438483449
88.14332247557003,199.060441667769,7.907474009113992,7.907474009113992,176.24183807074357
88.8599348534202,199.73983714519366,7.216432499534045,7.216432499534045,176.81695723013414
89.57654723127035,197.95495582203662,6.694079278498466,6.6940792784984655,177.76751401649824
90.29315960912052,198.35829155654955,7.552604592129968,7.552604592129966,176.8722352525554
91.00977198697068,198.19356045468143,7.757816111013622,7.757816111013621,174.69241242327243
91.72638436482085,198.20455941084194,7.87309013482615,7.87309013482615,175.91489486428924
92.44299674267101,199.56204140596893,7.576852640847532,7.5768526408475285,177.51392011586822
93.15960912052117,198.78653402289606,6.988882058470457,6.988882058470457,177.77019120468228
93.87622149837134,198.47199701015973,7.692336663251388,7.692336663251388,178.85955796092662
94.59283387622149,200.27201195219772,7.428096576475108,7.4280965764751095,178.5051006277633
95.30944625407166,199.7727966274073,6.8868515697836665,6.886851569783668,177.9944251160328
96.02605863192183,200.7591719641145,6.864831940074627,6.864831940074629,177.96746482871197
96.74267100977198,200.52043251510383,6.277434470981983,6.277434470981983,177.52030263203582
97.45928338762215,200.4706102292368,6.147913748376252,6.147913748376252,180.16518163769385
98.1758957654723,201.45899894260504,6.682290575593712,6.682290575593714,178.77327598034807
98.89250814332247,201.58264229178968,6.961620126876918,6.961620126876918,178.70019851497776
99.60912052117264,200.28819257965677,7.271262122851653,7.271262122851652,178.97031921131088
100.3257328990228,201.1202486479975,6.345540390765984,6.345540390765984,179.72176087066035
101.04234527687296,199.8822702535681,7.035042383737708,7.035042383737708,180.59706073360317
101.75895765472312,201.59259599754526,7.186881566134544,7.186881566134539,179.10275213709454
102.47557003257329,200.14615171428468,6.6819907325639445,6.681990732563944,180.4400029248833
103.19218241042346,199.70291090438468,6.383339612240278,6.383339612240277,178.56336495768574
103.90879478827361,201.74973115548744,6.456124505704714,6.456124505704712,179.2216913280223
104.62540716612378,200.1240657851184,6.719698975426175,6.7196989754261764,179.88568500462173
105.34201954397393,200.6497882713223,6.374863156705398,6.374863156705402,180.5285433963567
106.0586319218241,200.14242947381732,6.731613279726781,6.731613279726777,180.43204054675073
106.77524429967427,200.95203195642702,6.854711173804149,6.854711173804149,179.39621811616362
107.49185667752442,200.51033459734379,7.150620120770232,7.150620120770232,179.62061255221403
108.2084690553746,200.1594990903913,6.144768584703582,6.14476858470358,180.40912375763105
108.92508143322475,201.2670047394575,6.071468895357231,6.071468895357231,179.69525836380052
109.64169381107492,203.07363759193538,6.427333836307294,6.427333836307297,180.275247523468
110.35830618892508,201.7618030828931,7.167366822284899,7.167366822284899,180.32713490808223
111.07491856677524,201.4788221324348,7.190055496203818,7.190055496203817,181.71698350196235
111.7915309446254,202.01330417132147,6.654475835588106,6.6544758355881095,182.47208692965927
112.50814332247556,201.06011592871903,7.039690855224651,7.039690855224651,181.15073377706025
113.22475570032573,202.45301597521433,6.2638282044399345,6.263828204439933,180.43679483050622
113.9413680781759,201.71387278734932,6.782720754466716,6.782720754466718,179.83099857709837
114.65798045602605,201.95604667966987,6.133305698068086,6.13330569806809,180.9792795232247
115.37459283387622,202.43979644136505,6.659758376768876,6.659758376768876,179.78360846244667
116.09120521172638,202.009968178712,6.666800294292129,6.666800294292129,181.08694889491514
116.80781758957654,202.24016505317698,7.341460933813156,7.341460933813158,182.15298127784132
117.52442996742671,202.47440734037107,7.870454780698606,7.870454780698606,181.9143263508008
118.24104234527687,202.7025134977016,6.8191624161095135,6.819162416109513,182.2365096150037
118.95765472312704,202.43193699966054,5.828044860746572,5.828044860746572,182.2328800181888
119.67426710097719,202.61689337876305,6.0508934082898165,6.050893408289816,182.92434614550388
120.39087947882736,201.88370366301362,5.994692095848401,5.994692095848401,183.6516713715857
121.10749185667753,202.65925077132422,6.677221170776764,6.67722117077676,183.0729681301311
121.82410423452768,203.5626825916664,5.890540137553432,5.890540137553432,183.45964112335875
122.54071661237785,202.2553528967345,6.82957095807317,6.829570958073169,183.82165106552006
123.257328990228,203.33035739727745,6.053079417654523,6.053079417654521,183.20300166130264
123.97394136807817,204.247133418461,5.881718614057272,5.881718614057274,184.4040012335285
124.69055374592834,203.7971193130302,6.327709818771254,6.327709818771252,182.81622130040998
125.4071661237785,203.39205491599063,5.32413408841556,5.32413408841556,183.1028851906368
126.12377850162866,204.4459921565179,5.973873734158207,5.973873734158211,183.47112578372202
126.84039087947882,203.01329157777218,6.720938697693332,6.720938697693333,184.75647827745883
127.55700325732899,204.8888496871959,6.587222186620396,6.587222186620398,183.6410702761089
128.27361563517914,205.2944887753611,6.166731674274909,6.166731674274906,182.75808401026492
128.9902280130293,205.15049485069835,6.084013442631089,6.084013442631087,183.8474908971355
129.70684039087948,202.69718503364675,5.9703962656879925,5.970396265687993,187.07051154493382
130.42345276872965,206.29805635518878,6.423266548693271,6.423266548693276,184.5126375673249
131.14006514657981,206.31304534323039,6.649154633331599,6.6491546333315945,184.94112804473536
131.85667752442995,206.33167623890864,6.6882483870296845,6.688248387029685,186.36997918901983
132.57328990228012,206.25653017965845,6.613801677081072,6.6138016770810735,185.97159856484961
133.2899022801303,206.24452852416235,6.114008266769755,6.114008266769755,186.36409410910704
134.00651465798046,206.97629661314832,6.630809017222551,6.63080901722255,186.4062734045356
134.72312703583063,204.4510283427619,6.057702307906171,6.0577023079061725,184.20909173683842
135.43973941368077,205.35218548249796,6.2177921738922235,6.217792173892222,183.08036338159934
136.15635179153094,204.6119626480117,5.300610889802131,5.300610889802131,184.96319459218847
136.8729641693811,205.64135886777964,6.008471638291166,6.008471638291164,186.26038321438003
137.58957654723127,205.67730051666857,6.333728556275493,6.333728556275494,185.44866191808575
138.30618892508144,206.20097007623127,6.132943746237137,6.132943746237136,184.1660279085996
139.02280130293158,205.1289678413636,6.206760171055491,6.206760171055491,184.8584393808102
139.73941368078175,204.52253150978817,6.277467111474354,6.277467111474354,185.44597675358452
140.45602605863192,205.9213816531006,6.223830934795394,6.223830934795395,185.39498806338298
141.1726384364821,206.30913760885866,6.190567883869738,6.19056788386974,186.53924639705866
141.88925081433226,205.31968249979965,6.282464683329134,6.282464683329134,187.182681138624
142.6058631921824,205.0152661501977,6.167936575056851,6.167936575056852,186.57369551916088
143.32247557003257,206.68188914032945,6.006439983876058,6.006439983876061,186.9060631005088
144.03908794788273,206.072928194897,6.408617090497465,6.408617090497463,186.75935236297843
144.7557003257329,206.46909842389036,6.0287850537007985,6.028785053700799,186.70940922008637
145.47231270358307,205.92667385039883,6.075786268528497,6.075786268528497,187.49083205086194
146.1889250814332,207.21078113070877,6.3324394041817715,6.33243940418177,187.4511006426011
146.90553745928338,205.20483527044587,5.380007406424924,5.380007406424924,187.67353456371396
147.62214983713355,205.93917684177165,5.912216729675555,5.912216729675558,188.29854543534108
148.33876221498372,206.19505510092236,5.926863524381492,5.926863524381495,187.4819474902926
149.05537459283389,206.39922287688248,6.179149594436328,6.179149594436329,188.24612905803664
149.77198697068403,207.3304630542515,5.741127018318005,5.741127018318007,187.85965428665722
150.4885993485342,206.7348463260208,5.903396058664511,5.903396058664509,188.9829144572108
151.20521172638436,207.46440405318882,5.646692506060527,5.646692506060528,189.69797360375424
151.92182410423453,207.21162377161872,6.17515747559341,6.1751574755934096,190.00150039997473
152.6384364820847,207.06902959656622,6.25393057376083,6.253930573760832,189.4126994485392
153.35504885993484,207.90718282150826,6.220402556822028,6.220402556822031,189.1679222794259
154.071661237785,207.14079984157254,6.504429369348655,6.504429369348659,188.45994128072093
154.78827361563518,207.37522990100956,5.795518431871902,5.795518431871903,187.84308990627198
155.50488599348535,208.33751135304493,6.149650256856355,6.149650256856355,188.98891049619795
156.2214983713355,206.8149125376445,6.463206038707499,6.463206038707497,189.43818982570193
156.93811074918565,208.03332083286583,5.546932819912912,5.54693281991291,189.37045343404824
157.65472312703582,208.52645905036678,6.157947783730777,6.157947783730779,187.09777214423804
158.371335504886,208.0563948662329,6.318678721044998,6.318678721045001,187.06822233208544
159.08794788273616,208.36929482793943,5.993372169920285,5.993372169920285,188.62960981843528
159.80456026058633,208.117621523432,6.180889859306051,6.180889859306052,188.00218966092555
160.52117263843647,207.8366975023043,5.821995550658191,5.821995550658193,189.72825115600745
161.23778501628664,207.7219934024819,6.0013864845802285,6.0013864845802285,189.12105460048832
161.9543973941368,207.56972399493992,5.712553368433248,5.712553368433246,190.08440135686646
162.67100977198697,208.24593139240275,5.557804302752421,5.557804302752423,190.13592210610122
163.38762214983714,207.8053424103465,5.7740334830689575,5.774033483068958,190.23537452139243
164.10423452768728,208.6081567486013,5.907938618675409,5.907938618675411,191.34170632282772
164.82084690553745,208.92241965535268,6.25646492786201,6.256464927862012,189.38128047345222
165.53745928338762,208.98544743392395,5.978359294400299,5.978359294400297,190.98031372971124
166.2540716612378,209.15699061595654,6.561184728318021,6.561184728318024,191.09120121497037
166.97068403908796,209.69815730825871,5.580836585952372,5.58083658595237,191.56147606950861
167.6872964169381,208.73538758824725,6.292525067786192,6.292525067786195,192.14309770673265
168.40390879478826,210.15087473080175,5.786968403338146,5.786968403338145,191.93919482288274
169.12052117263843,209.35142981578193,6.11963161610353,6.119631616103528,191.216044033843
169.8371335504886,209.30550513360444,5.964039395465039,5.964039395465041,191.52598878024486
170.55374592833877,208.65603990544645,6.455664282584779,6.455664282584781,191.47221281373635
171.2703583061889,209.98764951552067,5.7678839772971005,5.767883977297101,190.861497603022
171.98697068403908,209.33618030574837,5.4668032408842,5.4668032408842,191.8381373260702
172.70358306188925,208.93878257825148,5.678539723750287,5.67853972375029,191.31805381772807
173.42019543973942,209.71976603543786,5.713085606508865,5.713085606508865,192.06599993808504
174.13680781758958,209.16389468756176,4.646387702274674,4.646387702274676,192.6116850522975
174.85342019543972,210.30237426129378,6.132672075720812,6.132672075720814,192.84023632748338
175.5700325732899,209.50320461886685,5.394628380481534,5.394628380481534,192.1325500328952
176.28664495114006,211.84620833385887,6.067023890023601,6.067023890023601,194.0538362697953
177.00325732899023,211.8248989085106,5.086005886331807,5.086005886331805,192.8675684779742
177.7198697068404,209.86210888033895,6.110354049893059,6.110354049893059,193.7235092616332
178.43648208469054,211.72464173894664,5.326844119320222,5.326844119320222,192.1793861670255
179.1530944625407,211.6618403919124,5.989134391608589,5.989134391608591,193.03224175364826
179.86970684039088,210.32991077614184,5.448070749100357,5.44807074910036,193.33596339096837
180.58631921824104,210.3352560713006,5.57845325200984,5.578453252009844,192.8411397864536
181.3029315960912,210.96132260987827,5.741620053634465,5.741620053634465,192.32974597800595
182.01954397394135,211.4160971491965,5.113188562670584,5.113188562670584,192.01546286022537
182.73615635179152,212.161277619464,5.842524631421612,5.842524631421614,193.07838044734825
183.4527687296417,211.58285120234643,5.015395617496557,5.015395617496555,192.86098698792577
184.16938110749186,211.8379885512779,6.379895975677606,6.379895975677606,194.38615863989048
184.88599348534203,210.84595917017344,5.862882867000841,5.862882867000843,194.4475607824246
185.60260586319217,211.72670656454912,5.127567640763263,5.127567640763263,193.9957104377742
186.31921824104234,212.7636142370399,5.327552918370711,5.327552918370706,193.67028409904566
187.0358306188925,211.5408672518069,5.027539831047271,5.027539831047273,194.7074102370356
187.75244299674267,212.76005386536536,5.5029752642127505,5.502975264212749,194.27484290024597
188.46905537459284,213.04083189210718,5.166255216516583,5.166255216516585,193.8744472894399
189.18566775244298,212.90362587855495,5.499999822320585,5.499999822320583,193.4870747459156
189.90228013029315,212.01144012962212,5.731093557063466,5.731093557063468,194.6401864152749
190.61889250814332,212.408800170495,5.608725111341967,5.608725111341967,193.60692694096832
191.3355048859935,213.7498214364741,5.372167276437226,5.3721672764372235,193.75326683751362
192.05211726384366,213.014049037036,5.616210278512133,5.61621027851213,195.05050635131573
192.7687296416938,212.263872140436,5.256961177486537,5.256961177486537,194.85161730338194
193.48534201954396,210.95981661091028,5.223783910321394,5.223783910321391,195.76998022985077
194.20195439739413,213.48444354693754,5.3198509973167285,5.31985099731673,195.32997519825685
194.9185667752443,214.94673652675414,5.521331797968748,5.52133179796875,196.49447619833606
195.63517915309447,214.6540782340704,6.136427863956353,6.13642786395635,197.07212950511754
196.3517915309446,214.68799172690436,5.3571962448117825,5.357196244811782,197.07947822118402
197.06840390879478,214.98017456965547,5.097004021648889,5.097004021648888,198.57150579552928
197.78501628664495,215.45715013683468,4.93485890365846,4.934858903658461,197.9642728654948
198.50162866449512,216.1518416369395,5.531801641663235,5.531801641663235,198.63137435819556
199.21824104234528,216.17615288226872,5.582764858539372,5.582764858539371,197.79718025147977
199.93485342019542,215.4683370361998,5.3554297658738585,5.355429765873859,199.00370704778928
200.6514657980456,215.82979833202907,4.621098514627911,4.621098514627911,198.93857561986783
201.36807817589576,216.05897833046077,5.424062108959457,5.424062108959454,199.30317146834588
202.08469055374593,215.6721011745104,4.784390286144962,4.784390286144965,198.55792007519094
202.8013029315961,215.91996749122526,5.418208792374002,5.418208792374004,199.22044100948057
203.51791530944624,216.5003310205479,4.756560756771166,4.756560756771167,199.95821518932843
204.2345276872964,217.04148111877416,4.883863664697305,4.883863664697307,199.45054013417945
204.95114006514657,216.5872772824055,5.139660935017527,5.139660935017525,200.22948635679893
205.66775244299674,216.716762131062,5.305451809352344,5.305451809352346,199.93323365113622
206.3843648208469,217.35631623568182,5.447008250747949,5.447008250747946,198.84768193830735
207.10097719869705,217.17892856057247,5.128571206167298,5.1285712061673,199.67689690748745
207.81758957654722,217.05562091408618,5.234156092407939,5.234156092407935,201.08574160614464
208.5342019543974,218.2195550208021,5.1350484852068465,5.135048485206842,199.57296158766763
209.25081433224756,217.2688197788415,5.4712540781717705,5.471254078171772,201.47988100624147
209.96742671009773,218.04317753570277,5.23938503768871,5.23938503768871,200.63529856472175
210.68403908794787,217.71866890922468,4.7922169273102675,4.792216927310268,201.23130497469828
211.40065146579803,218.0499802807819,5.140232477558488,5.14023247755849,201.91450618518522
212.1172638436482,216.6862481024462,4.950131570425564,4.950131570425567,201.72909280616256
212.83387622149837,217.61254874538199,4.886117493179256,4.886117493179259,200.07409321884907
213.55048859934854,217.58977634497853,5.493166751774283,5.4931667517742815,200.75368923534268
214.26710097719868,218.30966249049962,5.274432765794139,5.2744327657941374,201.2874553773841
214.98371335504885,218.72544492221652,5.237340568502984,5.237340568502985,200.35331338237677
215.70032573289902,218.30333226314687,4.695845975581345,4.695845975581345,202.09417902764017
216.4169381107492,217.8095297753362,5.384955612663525,5.384955612663525,201.0952632216744
217.13355048859935,218.25927124950726,5.5888398039768425,5.5888398039768425,202.05322929748033
217.8501628664495,218.26613037469457,5.468048290991336,5.468048290991336,202.8422755945798
218.56677524429966,217.97549860611707,5.024276350696575,5.024276350696575,201.26737612692008
219.28338762214983,217.74458928879793,5.124793635738768,5.124793635738771,202.49057030956928
220.0,218.92508134149892,5.128698701031102,5.128698701031103,202.72670832643712
220.71661237785017,219.45313537836466,5.907003007436232,5.9070030074362325,201.7473623631881
221.4332247557003,219.22028106686733,5.047570020264441,5.047570020264438,203.00405022763525
222.14983713355048,219.38630074668396,5.422054289155155,5.422054289155156,202.24905452265364
222.86644951140065,218.53365119532674,5.1191153559460325,5.1191153559460325,202.3908212845803
223.5830618892508,218.8213017905703,5.447770595436709,5.447770595436709,202.53447483667875
224.29967426710098,219.5800508079353,5.1367485214534865,5.1367485214534865,203.2373927789286
225.01628664495112,219.3188065891448,5.851876940148111,5.85187694014811,202.09588778349513
225.7328990228013,219.55636787795203,5.182279626624475,5.182279626624477,202.7982705430227
226.44951140065146,219.04704860698212,5.313102078143516,5.313102078143517,203.07934277654593
227.16612377850163,219.33750057047305,4.347130004429473,4.347130004429472,203.04928242264035
227.8827361563518,220.0449370511292,6.127330857033509,6.127330857033512,204.45746588466866
228.59934853420194,219.6224039817801,5.097149602663215,5.097149602663217,204.77221043029618
229.3159609120521,219.90165157965927,5.200825281137884,5.2008252811378854,204.5971235331366
230.03257328990227,220.74935675184514,6.120058177532766,6.120058177532764,202.96922306897156
230.74918566775244,221.07756687365287,5.49193003388595,5.491930033885954,204.57358152827211
231.4657980456026,220.979850735142,5.07128630757532,5.07128630757532,204.48598611509198
232.18241042345275,221.1192764358272,5.254325124780433,5.254325124780431,203.99942830465568
232.89902280130292,221.24491030736957,4.890355221779081,4.890355221779082,203.880687352985
233.6156351791531,220.71428798593936,5.30412480853901,5.304124808539007,206.7198908075613
234.33224755700326,220.19584908218022,5.615136803421724,5.615136803421723,206.2316988337395
235.04885993485343,221.03281792935127,5.193684959188013,5.193684959188007,204.7558573188773
235.76547231270357,221.06563689586002,5.178066090644926,5.178066090644924,205.50794929427542
236.48208469055373,220.77588544597046,5.424697632868388,5.424697632868388,205.54154670244958
237.1986970684039,220.43334027703304,5.8020860988968055,5.8020860988968055,205.2190387729994
237.91530944625407,221.43777868756115,5.878467107232514,5.878467107232512,206.35810161021263
238.63192182410424,221.0064867280143,5.76337829125566,5.763378291255661,206.55742583838105
239.34853420195438,220.91580680765702,5.391947518972602,5.391947518972599,206.1301776768389
240.06514657980455,221.07203904680082,5.669688163328072,5.66968816332807,206.0993624168774
240.78175895765472,221.82435436768796,5.604869494692466,5.604869494692466,206.75726603449155
241.49837133550488,222.39620229379005,5.083066633578488,5.083066633578487,206.13555186512224
242.21498371335505,221.93587892092734,5.620162016476607,5.620162016476607,206.63871949917296
242.9315960912052,222.4038032415597,5.307789005319612,5.307789005319612,206.36593567932908
243.64820846905536,221.9084525392847,5.111071028361003,5.111071028361,207.31141074092827
244.36482084690553,221.621889498145,5.581509296188939,5.5815092961889405,204.90157036746427
245.0814332247557,220.28656188158752,5.22473439162682,5.224734391626821,205.8655959254013
245.79804560260587,221.8264377433992,5.426784907927523,5.42678490792752,206.5272314139287
246.514657980456,224.59440816128844,4.851622632259825,4.851622632259831,204.5390085033743
247.23127035830618,222.7267735191572,5.693728128113051,5.693728128113053,205.30366604581607
247.94788273615634,222.62546269137385,5.833917770423896,5.833917770423897,208.02359253111007
248.6644951140065,221.920985073287,5.096602311736081,5.096602311736081,206.14263140676678
249.38110749185668,223.6708208628684,4.355945077584847,4.355945077584847,205.66507172033567
250.09771986970682,222.0918138839798,4.7886836431725355,4.788683643172537,207.05365091622642
250.814332247557,222.4400104792582,5.0364039249060015,5.036403924906002,207.71831412665856
251.53094462540716,222.30338845886382,4.8463146266023225,4.846314626602326,207.7283046230377
252.24755700325733,223.5059886471818,5.6095197172514935,5.6095197172514935,207.28948670694936
252.9641693811075,223.46186428071744,5.667750556183589,5.667750556183584,208.81522722032398
253.68078175895764,223.99009670832402,5.430133628418505,5.430133628418505,207.34087224992578
254.3973941368078,223.56041816218152,5.507560683350833,5.507560683350832,208.50959293510124
255.11400651465797,223.08174662961073,5.1422557424517645,5.142255742451766,209.45438942645026
255.83061889250814,224.0649539309914,5.512537389491379,5.512537389491382,208.94205454467834
256.5472312703583,225.00521383777604,5.4093114491797465,5.4093114491797465,208.9330133795768
257.2638436482085,224.41041383262083,5.048255089625724,5.048255089625724,210.235919187728
257.9804560260586,225.23440987188297,5.275892041383003,5.275892041383004,209.49657987777252
258.6970684039088,225.3038623288012,5.396095677443625,5.396095677443623,210.1267336057613
259.41368078175896,224.36899708511464,5.661882819806326,5.661882819806321,210.0990857115283
260.1302931596091,224.04612787423957,5.175595276313838,5.175595276313839,209.07244498177656
260.8469055374593,224.79471975284082,5.236009844977768,5.23600984497777,209.34139736888739
261.56351791530943,225.5440087368403,5.36267239174967,5.362672391749669,210.09678131247338
262.28013029315963,224.4889703101215,5.109962122143642,5.109962122143642,210.23482596301304
262.99674267100977,225.67851140517155,5.30307904207693,5.3030790420769325,209.3758207604892
263.7133550488599,224.78897190646057,5.762119773816412,5.76211977381641,211.16836713758434
264.4299674267101,224.7412790875495,5.781593402964423,5.781593402964417,210.96043470484636
265.14657980456025,225.56393450866437,5.817216092097075,5.817216092097079,210.57219944919356
265.86319218241044,225.97816743342833,5.401960986703795,5.401960986703793,210.04149374156475
266.5798045602606,226.51556699506912,5.461133288357637,5.46113328835764,211.858408920016
267.2964169381107,226.1186732818484,5.636086938540237,5.636086938540239,213.9969404586526
268.0130293159609,225.05753258266841,5.368007496633468,5.368007496633473,212.6957732107387
268.72964169381106,225.51537176433976,5.250515145299349,5.250515145299345,212.96241469538109
269.44625407166126,225.55860891809317,5.0968359721754934,5.096835972175495,211.99017283058836
270.1628664495114,225.91630907826357,5.532190394041018,5.532190394041019,212.35005915792
270.87947882736154,225.5421440255794,5.6305366302174935,5.630536630217492,214.30779377620175
271.59609120521174,227.4199994382111,5.714455995054923,5.714455995054923,211.06778327668272
272.3127035830619,226.57496611105285,5.290087648605604,5.290087648605604,212.95623253319928
273.0293159609121,227.593467027685,5.3735025721488405,5.373502572148836,211.816595456633
273.7459283387622,228.01037490122542,5.80870494304643,5.808704943046433,212.83714189534658
274.46254071661235,226.737676181135,5.274938121138649,5.274938121138653,213.90047868325834
275.17915309446255,226.81816361270555,5.604302800465146,5.604302800465148,213.59172202205926
275.8957654723127,227.2946785567188,5.0887468305348955,5.0887468305348955,214.6135166352088
276.6123778501629,226.60295536448928,5.104007041077338,5.104007041077335,214.00902510161495
277.328990228013,225.85324995769554,5.838740021245662,5.838740021245663,213.9240877610126
278.04560260586317,227.06419748517246,5.478970309567267,5.478970309567268,214.01571352036285
278.76221498371336,226.69269544447303,4.796957616591993,4.7969576165919925,212.26638056095663
279.4788273615635,227.35571673958412,5.486340182017423,5.486340182017423,213.89768578186371
280.1954397394137,227.74938835097046,4.771925738803652,4.771925738803653,212.9406482926529
280.91205211726384,227.52016972479834,5.6550296164264715,5.655029616426474,213.93333800655452
281.628664495114,228.09255953065227,5.364015638976252,5.364015638976252,213.35823647152972
282.3452768729642,227.90165627811663,5.2415571381897585,5.241557138189762,215.27555492055274
283.0618892508143,228.36041750806237,5.3833788803671165,5.38337888036712,213.40949909844753
283.7785016286645,228.0400381062475,4.934874662727701,4.934874662727701,215.554019662587
284.49511400651465,227.9042348348935,6.175352323181371,6.1753523231813725,214.49662356468028
285.2117263843648,227.18273332465202,5.619800233585838,5.619800233585841,214.72969650616167
285.928338762215,228.21700413834685,5.283020881289962,5.283020881289964,216.6912983962512
286.64495114006513,228.45065320575802,5.482128675722162,5.482128675722161,215.25902841962738
287.36156351791533,228.68383637093845,5.423038240487166,5.423038240487164,215.65505802008533
288.07817589576547,228.73319475332448,5.761587611700861,5.761587611700858,216.99494020116038
288.7947882736156,228.8536209781717,5.652038959714271,5.652038959714267,217.0970961588817
289.5114006514658,230.3499998561985,5.446532682199846,5.44653268219985,214.68678419204508
290.22801302931595,229.84747752797557,6.383807096824277,6.383807096824274,216.6745294882775
290.94462540716614,229.89093227851023,5.516362862195857,5.516362862195853,216.83306687282806
291.6612377850163,230.7661004762298,5.649500754365719,5.649500754365716,217.3341287805493
292.3778501628664,229.44344033674594,4.985772167320505,4.985772167320504,217.77453820115412
293.0944625407166,231.46263598194923,4.821289805758461,4.821289805758459,216.48218560125605
293.81107491856676,230.622326462851,5.030031459656062,5.030031459656064,217.61557137289606
294.52768729641696,230.1060046424257,5.4290424269969755,5.429042426996977,217.83649209022133
295.2442996742671,230.35479597762838,5.8739409095880415,5.873940909588041,218.27084440083246
295.96091205211724,230.12675526485674,5.70956749426527,5.709567494265267,217.54376724629728
296.67752442996743,231.67977947621074,5.354794929374746,5.354794929374749,216.23175498814393
297.3941368078176,232.01488232204727,6.355059751392307,6.355059751392307,217.48856801286556
298.11074918566777,231.58897535822297,5.510219777490485,5.510219777490485,216.9884357206737
298.8273615635179,229.3522102650818,5.716106451007791,5.716106451007789,219.1145250809561
299.54397394136805,230.82636739595617,5.416969793867896,5.416969793867898,218.4109062919363
300.26058631921825,231.20679569202358,5.993008138560618,5.993008138560615,218.93425903610975
300.9771986970684,230.68501480837634,5.672832904183771,5.672832904183773,220.04752457352802
301.6938110749186,230.70861296802929,5.165261610960058,5.16526161096006,219.65723522245443
302.4104234527687,231.03568554420676,5.680680332218638,5.680680332218636,219.92072275166944
303.12703583061887,231.94145274112964,5.678544934648272,5.678544934648274,219.5369887655413
303.84364820846906,230.72290517346508,5.328700244960489,5.328700244960491,219.4501974334525
304.5602605863192,231.20394811739942,5.440116534188382,5.440116534188381,219.4487568138146
305.2768729641694,231.21520544134373,5.465716683515069,5.465716683515072,219.42973756915106
305.99348534201954,231.96912463427853,5.654525302027404,5.654525302027403,220.4628149007151
306.7100977198697,231.54593488139716,5.242508451432367,5.242508451432368,218.8865552434914
307.4267100977199,230.71169692198671,6.099901380934303,6.09990138093431,219.51209974810845
308.14332247557,232.97207185469827,5.394938501509689,5.394938501509693,218.9071984939404
308.8599348534202,232.47101388206846,5.705714988181851,5.705714988181854,220.21082439059808
309.57654723127035,231.73019117300126,5.6911013044847625,5.6911013044847625,219.7854575209144
310.2931596091205,232.07225391352955,5.712860460185911,5.712860460185911,220.8610788122889
311.0097719869707,232.70757119807325,5.509163749406349,5.509163749406349,220.93106692882287
311.72638436482083,232.0462134656288,5.928361085986658,5.928361085986661,221.23161879494046
312.442996742671,232.2858976736775,6.052398036304067,6.052398036304068,221.33594878201615
313.15960912052117,233.33394962809962,6.41485358387316,6.414853583873157,220.90202031559932
313.8762214983713,232.400458273932,5.641735638354701,5.641735638354703,221.5608226588024
314.5928338762215,233.8808707653268,5.451428756454757,5.451428756454759,221.22866205371628
315.30944625407164,233.2062619998771,5.9676496583911245,5.967649658391121,222.5394249716446
316.02605863192184,233.48672253697868,6.168813271927253,6.168813271927253,221.85285981767962
316.742671009772,232.43819082733174,5.981181710710404,5.981181710710404,223.12272844808865
317.4592833876221,233.38406541052228,5.678733547417474,5.678733547417471,223.055743015655
318.1758957654723,234.4845200110674,5.600786490810889,5.60078649081089,221.37328060400756
318.89250814332246,232.65433675365628,5.241431274966521,5.241431274966521,221.9939525922359
319.60912052117266,233.4273726658741,5.771254805381498,5.771254805381497,222.47109480575259
320.3257328990228,232.1102150608099,5.306912401486357,5.306912401486355,221.57226653574665
321.04234527687294,233.29315908855028,5.691613826292658,5.691613826292656,222.00139521508916
321.75895765472313,233.7053224249112,5.467361927557108,5.467361927557107,221.56252377773683
322.4755700325733,234.05645366072665,5.5403079106554465,5.540307910655448,220.6252020435453
323.19218241042347,234.63661844417507,5.269678530377953,5.269678530377952,222.39646431560658
323.9087947882736,233.85350040045518,5.812896584810432,5.812896584810432,223.13415093931067
324.62540716612375,233.80823915236383,6.2744204966995785,6.2744204966995785,222.72057045399583
325.34201954397395,234.68043066874083,5.503446208560486,5.5034462085604865,222.6554150768696
326.0586319218241,234.67395440228242,5.209806365545104,5.209806365545101,224.10595755516545
326.7752442996743,234.2987022303411,5.197903426492242,5.197903426492238,223.04232738634647
327.4918566775244,234.23991874977818,4.978483750410768,4.97848375041077,221.94558618427598
328.20846905537456,234.57989378907067,5.312693131967228,5.3126931319672295,224.54144832349516
328.92508143322476,234.45799781150538,5.845486499893038,5.845486499893038,224.36904494015414
329.6416938110749,234.11836552436543,5.124198906520986,5.124198906520985,222.9118755267069
330.3583061889251,234.88729184842407,5.772175479066201,5.7721754790662025,224.48247646260128
331.07491856677524,235.4733723252265,5.346259241418767,5.346259241418765,223.50503685275672
331.7915309446254,234.3616142393907,5.669598977893033,5.669598977893035,224.57680335893983
332.5081433224756,235.1143191444972,5.936956054566895,5.936956054566894,224.94645529313598
333.2247557003257,235.4228812174417,5.353410417700213,5.353410417700209,224.02379559452942
333.9413680781759,235.04244079371853,5.898790564502083,5.898790564502079,224.78731306327478
334.65798045602605,235.93589830449446,5.216154550673935,5.216154550673935,226.2083312747925
335.3745928338762,235.68904187836316,5.59879676044931,5.59879676044931,224.18770712890998
336.0912052117264,235.6564247546074,5.578909105429777,5.578909105429777,223.77948165125508
336.80781758957653,236.36493782807838,5.609059029268996,5.6090590292689955,223.75042477372455
337.5244299674267,235.23217686887705,6.026257463624042,6.026257463624036,225.31858549766343
338.24104234527687,235.2792221076397,5.741923535484681,5.741923535484682,225.30251865645258
338.957654723127,235.44543715576057,5.529512356242639,5.529512356242639,226.20000097339505
339.6742671009772,235.24593705770434,5.8676257551421145,5.867625755142113,226.50904561653
340.39087947882734,236.45072485347876,5.544669193371066,5.544669193371063,226.13502701909573
341.10749185667754,235.29686289704694,6.056138107085343,6.056138107085342,226.7052409780359
341.8241042345277,236.07263679761073,5.577339429038729,5.577339429038729,226.7098918741903
342.5407166123778,235.1247398131134,5.106893064052469,5.106893064052469,227.7226468709092
343.257328990228,235.86419695419585,5.544719225203949,5.544719225203953,226.59124849604882
343.97394136807816,236.58943136905359,5.4858082144676565,5.4858082144676565,227.30262682814364
344.69055374592836,236.59072392591307,5.064477228095477,5.064477228095478,228.49219553727988
345.4071661237785,237.24232602050677,5.058307440961896,5.058307440961898,227.5704016991548
346.12377850162864,237.6586256361488,5.517989242681893,5.5179892426818915,227.56231495138303
346.84039087947883,236.86456733950544,4.889502405797914,4.889502405797914,228.0758552039793
347.557003257329,236.61388225529225,5.737182222845565,5.737182222845565,228.00201949539345
348.27361563517917,237.01036028601823,5.477448166769191,5.477448166769191,227.79160121007052
348.9902280130293,236.38429938959328,4.706265185411266,4.706265185411266,227.73604285861995
349.70684039087945,238.02988833152634,4.715828365015608,4.715828365015609,227.57729230664904
350.42345276872965,236.80432461321956,5.321852965121457,5.321852965121454,229.26116911683184
351.1400651465798,237.3126355872351,5.4468697039516005,5.446869703951598,227.28366081274268
351.85667752443,236.7977379262908,4.815572612933883,4.81557261293388,227.47487424643842
352.5732899022801,237.4463578467741,5.5545203673260595,5.554520367326062,227.99237379247947
353.28990228013026,237.41548876456775,4.962723971910609,4.962723971910609,228.0495219402801
354.00651465798046,236.5610142239648,5.3057029745576525,5.305702974557654,228.84672750553042
354.7231270358306,237.37768530123387,5.277308869431732,5.277308869431729,227.08076096043607
355.4397394136808,237.4204311198341,4.8457919133775595,4.845791913377559,228.53324802064972
356.15635179153094,237.1624226346404,5.497849430412658,5.49784943041266,228.5410819768439
356.8729641693811,238.0216281776069,5.367716708709281,5.36771670870928,229.27810327276833
357.5895765472313,237.34231690965782,5.984395266879517,5.984395266879515,228.5165445465239
358.3061889250814,237.7883541726911,4.983581121971987,4.983581121971986,229.96834832240572
359.0228013029316,237.24031674237568,5.126411474736795,5.126411474736794,230.8848036691083
359.73941368078175,238.32565169863275,5.779802314349464,5.7798023143494675,230.97032297784753
360.4560260586319,238.7296650803669,5.030302048678865,5.030302048678865,230.760692999319
361.1726384364821,238.96137757946664,5.181998792084524,5.181998792084526,230.97811585472465
361.88925081433223,238.90544400055947,5.660880930827934,5.660880930827937,231.08232184014204
362.6058631921824,239.4046768303546,4.949664134864411,4.949664134864411,230.2351615127781
363.32247557003257,239.25532640036081,4.178541478091431,4.178541478091431,229.72138702265852
364.0390879478827,238.3145071179812,5.441383689414424,5.441383689414426,230.58605280181004
364.7557003257329,237.88045164450847,4.94810687358759,4.948106873587592,231.45155967234746
365.47231270358304,237.81557977987006,5.412765348336015,5.412765348336015,230.86694759340614
366.18892508143324,240.008656813872,4.355526886449459,4.355526886449457,232.91708772779592
366.9055374592834,240.48019673768673,4.383496216077931,4.383496216077929,232.33195260292214
367.6221498371335,242.29672319297924,4.9020604956232985,4.902060495623299,234.83529455080364
368.3387622149837,241.50048087138094,4.4602276337284525,4.460227633728457,236.47048658403273
369.05537459283386,241.72145477774194,4.664783200333247,4.664783200333248,235.6947216306861
369.77198697068405,242.6518948369966,4.368945170666853,4.36894517066685,234.41311340186468
370.4885993485342,241.9760783517845,4.787586232731705,4.787586232731701,235.82226444309146
371.20521172638433,241.73665860106018,4.465848865362222,4.465848865362222,235.3018208025727
371.92182410423453,243.48755057396687,4.403417664033379,4.403417664033376,233.90206901444105
372.63843648208467,243.31159356998992,4.787254630959226,4.787254630959225,235.5974619663401
373.35504885993487,243.32581645648625,5.091635431148058,5.091635431148056,234.57704169984171
374.071661237785,244.28242494685423,4.630741767043715,4.630741767043714,235.58248001397564
374.78827361563515,243.70945874047425,5.0892603874459015,5.089260387445901,235.27748627870344
375.50488599348535,243.47629998106336,4.872069696113216,4.872069696113216,234.75578803543678
376.2214983713355,243.28278837793823,4.359146758921937,4.359146758921938,237.7808656485069
376.9381107491857,243.29361174143185,4.3509115144812265,4.350911514481223,237.03553703894065
377.6547231270358,243.07410086196163,4.2489153962459225,4.248915396245925,237.95061264456947
378.37133550488596,242.47196201329606,4.742408631732468,4.742408631732467,237.34382193313306
379.08794788273616,242.59731478243728,3.3859871418901224,3.3859871418901206,237.57070506268303
379.8045602605863,242.84737405327988,4.815441142250014,4.815441142250017,238.36606743433722
380.5211726384365,243.97152312116597,4.19820143920859,4.198201439208589,237.41148445717292
381.23778501628664,243.09022767535032,4.415533759165483,4.415533759165485,239.08335696869761
381.9543973941368,243.47539950954962,4.66618072905842,4.66618072905842,237.2102480014033
382.671009771987,244.36747593560042,3.648619582499422,3.6486195824994234,236.9041148525677
383.3876221498371,243.5006209843216,3.854928851280917,3.854928851280916,238.89048780648227
384.1042345276873,243.49002385162925,5.04334988983689,5.0433498898368905,238.3412243184073
384.82084690553745,244.55909842504622,4.547993513714114,4.5479935137141165,236.87390835735553
385.5374592833876,244.51417894483566,4.3079685686684,4.307968568668397,236.57670109696153
386.2540716612378,244.74486869402722,4.013033417991115,4.013033417991111,238.33370652536263
386.9706840390879,243.66628288541688,4.5017420407102895,4.50174204071029,238.5303351306899
387.6872964169381,243.21252230597167,3.8437367950266554,3.843736795026651,238.65112089410016
388.40390879478826,244.27003203254085,4.47658364851077,4.476583648510771,236.5528058512842
389.1205211726384,244.2550064247593,4.599296425626677,4.599296425626675,237.61149021487404
389.8371335504886,244.14732886540142,4.096857337076892,4.096857337076892,238.27293799196795
390.55374592833874,245.0247996944068,4.510431500425328,4.510431500425327,237.79862832546263
391.27035830618894,244.2073873169416,5.111910458295465,5.111910458295468,240.2541325702057
391.9869706840391,244.37340904405545,4.085238072296425,4.085238072296425,239.94008335888083
392.7035830618892,243.76926948475707,4.754355636967358,4.754355636967358,238.22511910551134
393.4201954397394,244.15070791372807,5.149858212685492,5.149858212685492,239.48419501072541
394.13680781758956,243.79801478925347,4.804161307455408,4.804161307455411,240.3822497058624
394.85342019543975,245.37677247212284,5.594739915911384,5.594739915911384,239.93014498923523
395.5700325732899,243.70261776183347,5.107830197579039,5.1078301975790374,240.2446679136859
396.28664495114003,245.61156135797663,3.792028710706838,3.79202871070684,239.70673594308516
397.00325732899023,245.1133575308256,4.457645921505907,4.457645921505909,239.21418644107797
397.71986970684037,246.12551893368087,4.10790147426287,4.1079014742628654,240.50790930815626
398.43648208469057,247.20160647776584,4.033933257629187,4.033933257629187,240.56813957261224
399.1530944625407,245.9083608750691,4.416479270840472,4.41647927084047,239.8210994999365
399.86970684039085,246.36280934634726,3.92715508622106,3.927155086221061,239.90746045461012
400.58631921824104,247.2970720729334,4.324543743416475,4.3245437434164735,239.88201715113053
401.3029315960912,245.56337804391924,4.123097363818096,4.123097363818096,241.19144618320902
402.0195439739414,246.90359119802005,4.410233679437142,4.410233679437145,241.13179145994098
402.7361563517915,246.13678181160452,3.9431489740925665,3.9431489740925683,242.5945973680728
403.45276872964166,245.4148226134672,3.5464387797629784,3.5464387797629757,240.72909632924433
404.16938110749186,246.10941370693868,4.66953484043536,4.669534840435358,241.30391918115407
404.885993485342,245.4034477736257,4.475870208573699,4.475870208573698,241.58921665304925
405.6026058631922,245.9099922138688,4.071468002736731,4.071468002736731,240.75952658198653
406.31921824104234,245.66095801263953,4.099611088566114,4.099611088566115,241.86090048321518
407.0358306188925,246.7098787032765,4.467536717705309,4.4675367177053085,240.4957642839098
407.7524429967427,245.35516104419017,4.259196328921916,4.259196328921917,241.26694011002232
408.4690553745928,246.72832016704032,3.915187567996216,3.915187567996216,240.5338784482096
409.185667752443,246.7583109230727,4.7976957965615235,4.7976957965615235,240.35964076682487
409.90228013029315,246.58839512484224,4.296050985520308,4.296050985520313,241.34685676247398
410.6188925081433,246.02946981353134,4.6011897130143,4.601189713014304,243.6616800501736
411.3355048859935,246.63055025787307,3.7801929852419716,3.7801929852419693,241.60680675635487
412.0521172638436,246.3708744780397,4.268846682532735,4.268846682532734,242.64920602797616
412.7687296416938,247.00245745843992,4.079538513130495,4.079538513130493,241.98843449830056
413.48534201954396,248.1543388539696,4.2175933423830365,4.21759334238304,242.8195451784047
414.2019543973941,248.76422432431758,4.877272108094147,4.877272108094142,242.59609967027524
414.9185667752443,247.90404075224095,4.760184214934323,4.760184214934321,242.96466554810894
415.63517915309444,248.69609064484186,4.245178864591669,4.245178864591671,242.82516419389387
416.35179153094464,248.44143608285134,4.367674051930906,4.367674051930907,242.65431729339267
417.0684039087948,249.93568321422015,4.588140801213318,4.588140801213318,243.9494695578236
417.7850162866449,249.3880872067767,3.324725854489816,3.324725854489815,242.5672700214518
418.5016286644951,247.90410121553703,2.9890294016073815,2.98902940160738,243.49935738559034
419.21824104234526,248.03663956189453,3.8319576095883745,3.831957609588377,243.9302223791787
419.93485342019545,248.52189997099822,3.3912156997215264,3.391215699721525,244.84075680716785
420.6514657980456,248.70195050481615,3.20563009001704,3.20563009001704,244.5642298806739
421.36807817589573,249.45100036299903,3.099920368311153,3.099920368311152,244.45514259952233
422.08469055374593,249.06423294456954,3.289056090697402,3.2890560906974033,243.90747093338624
422.80130293159607,248.91923450750673,3.214515777192472,3.2145157771924713,245.07297727120857
423.51791530944627,249.12148551542126,2.5624787136789733,2.5624787136789737,244.47749596077114
424.2345276872964,247.62653682593734,3.4826638349618926,3.4826638349618926,243.12228721432987
424.95114006514655,249.85458218395718,4.035705525894209,4.03570552589421,245.00866940825898
425.66775244299674,249.7418273122529,3.5786460724444265,3.578646072444428,244.16511237207396
426.3843648208469,249.92494210600762,3.6956779299174007,3.695677929917403,244.79948465344137
427.1009771986971,249.97047477979808,3.2497802432926797,3.249780243292681,244.59639124868866
427.8175895765472,249.9766241029438,3.5478574766062243,3.547857476606221,245.47561560023203
428.53420195439736,249.85952253682464,3.969145244622746,3.9691452446227484,246.09820122431856
429.25081433224756,250.1683113480258,3.137917979770613,3.1379179797706134,246.0316918220242
429.9674267100977,249.12803921347495,3.9334453384502472,3.9334453384502512,246.52827791619222
430.6840390879479,249.48255696609306,3.790278372150697,3.7902783721506963,246.47960403074956
431.40065146579803,248.87135524179027,3.7300661527846635,3.7300661527846612,246.9154191582033
432.1172638436482,249.42122965748922,3.368275343473585,3.368275343473587,247.4690293523323
432.8338762214984,250.5644985088958,2.970320848423113,2.970320848423111,245.2840027376091
433.5504885993485,250.55980379420438,2.5727986651844295,2.572798665184429,246.22277487445686
434.2671009771987,250.43078221397,3.1053058381608794,3.1053058381608807,247.27620925156137
434.98371335504885,251.03654034410755,3.23210899529785,3.2321089952978492,248.39576511170222
435.700325732899,249.02919767813924,3.44510589750302,3.445105897503019,248.27048558774462
436.4169381107492,250.6307454657837,3.686919305830185,3.6869193058301852,247.60539457236206
437.1335504885993,250.51120980990842,3.6267939602448687,3.6267939602448713,248.274295516658
437.8501628664495,251.38216239087325,3.500062628263959,3.5000626282639558,248.047230191629
438.56677524429966,251.5440749202688,3.2061292277044884,3.206129227704491,246.73776127232088
439.2833876221498,250.29875013341473,2.9673427477655148,2.967342747765507,249.0349085641274
440.0,250.76010274136883,3.335340296913247,3.335340296913247,246.9783500863345
440.71661237785014,251.89913662588032,3.1097965322270724,3.1097965322270653,248.55882736403757
441.43322475570034,251.88301321618974,3.8148042844458137,3.8148042844458177,247.93237848205607
442.1498371335505,250.57107224893238,2.8430035841057624,2.8430035841057606,248.7704923695589
442.8664495114006,250.62573420983625,3.0902430620824273,3.090243062082423,247.6829690836193
443.5830618892508,251.85539570005488,3.686819778145513,3.6868197781455114,247.90566885034883
444.29967426710095,252.91943355985518,3.574862960257941,3.5748629602579416,247.6554429117967
445.01628664495115,252.59898492779507,3.7132572740888947,3.7132572740888956,247.82312142390188
445.7328990228013,251.05780075430457,3.1558405381560144,3.1558405381560144,248.4710919457527
446.44951140065143,251.95127532700977,3.021452016972186,3.0214520169721912,248.6601305378639
447.1661237785016,251.46131428538027,2.366214973768796,2.366214973768796,249.4629923489902
447.88273615635177,251.94962495738554,3.2026380157360883,3.202638015736087,250.52487431337488
448.59934853420197,252.24077761987004,2.7853223523570545,2.7853223523570545,249.0039146424802
449.3159609120521,252.34472873837748,3.121678865715955,3.121678865715955,249.0928995211401
450.03257328990225,252.9617599278277,3.485007524910266,3.485007524910263,249.2546301307579
450.74918566775244,253.3255324964787,3.183686298334455,3.183686298334455,248.05979477553086
451.4657980456026,252.78386814004415,3.0891075363082168,3.0891075363082168,249.8365504617648
452.1824104234528,253.79962579481048,3.452993554860592,3.4529935548605892,249.71354593518845
452.8990228013029,251.94393491269508,3.4511781609380985,3.4511781609381003,251.15255962003096
453.61563517915306,252.9619530339961,3.481387168743901,3.4813871687439057,249.03153614732508
454.33224755700326,251.64257264003845,3.1036519282721473,3.1036519282721473,251.026026044607
455.0488599348534,252.29732012525528,3.567487901183321,3.56748790118332,251.73197518695983
455.7654723127036,253.69721076346235,3.147168078294939,3.1471680782949414,250.19596774311202
456.48208469055373,253.4123885781678,2.755692792211929,2.755692792211928,250.60765619927037
457.1986970684039,253.03055525592285,3.30609218595332,3.306092185953322,249.30118023822288
457.91530944625407,253.19310206099843,3.404723916624826,3.404723916624824,250.4487737444786
458.6319218241042,254.4783536457075,3.4469858914399314,3.4469858914399287,250.8629510089711
459.3485342019544,254.6877911381806,3.67789937601005,3.67789937601005,251.40093730152068
460.06514657980455,254.18531227018204,3.2869892624587056,3.2869892624587043,251.4572993832733
460.7817589576547,254.38435500839472,3.216823339304811,3.216823339304815,251.48514959550005
461.4983713355049,254.99045387852544,3.1732224370088593,3.1732224370088606,251.84959149620505
462.214983713355,253.89531739677022,3.458978175266576,3.4589781752665747,251.84942876009842
462.9315960912052,253.83111280853805,3.2667698229126416,3.2667698229126385,251.53546237467276
463.64820846905536,254.95549066317324,3.094583551185139,3.0945835511851376,250.12709148699602
464.3648208469055,253.2965039577117,4.5547776511560265,4.554777651156026,251.69741613018476
465.0814332247557,254.7109807443583,3.4512144622808467,3.4512144622808467,250.83390361435326
465.79804560260584,253.46052458419575,3.720167389294179,3.720167389294179,251.97996325085435
466.51465798045604,254.7372926663508,3.6176355331277654,3.6176355331277676,251.35373006864893
467.2312703583062,255.1749221402097,3.494917569441953,3.4949175694419514,251.65987808462546
467.9478827361563,255.42162031345592,4.2044101666985165,4.204410166698517,252.1590126700543
468.6644951140065,254.54627750833026,3.4937104570117388,3.4937104570117388,252.29881102489662
469.38110749185665,254.84843459303258,3.5503714532856185,3.5503714532856225,251.84603154526522
470.09771986970685,254.30472388204035,3.761965254200847,3.7619652542008497,252.5875444196856
470.814332247557,255.275210596573,3.899340310610439,3.899340310610442,251.75920117298628
471.53094462540713,256.3487736312844,3.434665547287971,3.4346655472879757,252.1101838623475
472.2475570032573,255.0772661515276,3.7646877482131225,3.764687748213119,252.6437034160525
472.96416938110747,255.19883061179237,3.5363508666288523,3.536350866628851,253.42868571986537
473.68078175895766,254.985841187677,3.305172234624419,3.30517223462442,251.4298085542658
474.3973941368078,254.87379763510637,3.381536611647718,3.3815366116477157,252.79307202447313
475.11400651465794,254.54505329651818,4.012164900930844,4.012164900930844,253.12963568515246
475.83061889250814,255.6518726144877,4.510910094604477,4.510910094604475,253.41748158978785
476.5472312703583,255.26035821316546,3.6613894058664758,3.6613894058664793,252.80610695987477
477.2638436482085,256.0615582894897,3.832709525159571,3.832709525159571,251.88282510064082
477.9804560260586,255.09274181621288,3.924742056981627,3.924742056981628,252.97877113132307
478.69706840390876,255.88639404538156,4.063551510632654,4.063551510632656,252.5402941559136
479.41368078175896,255.29945742037935,3.693466801288848,3.6934668012888454,253.5060842937773
480.1302931596091,256.44645354801565,3.571718202030925,3.571718202030924,252.03720456710633
480.8469055374593,255.96190078016508,3.3636367442885877,3.3636367442885877,252.88486616286852
481.56351791530943,255.78276858432014,3.5879980446309316,3.587998044630933,252.3995360437779
482.2801302931596,254.95878444808673,3.895667581626831,3.895667581626834,253.0155033888618
482.99674267100977,257.43163229430775,3.801679963931375,3.8016799639313756,253.0436020376495
483.7133550488599,255.9738238181926,3.478793570762512,3.4787935707625137,254.27309875330565
484.4299674267101,256.1910715440173,4.30464071405039,4.304640714050391,253.52447607952035
485.14657980456025,256.65042325511365,4.516290660699487,4.516290660699491,253.86053547085962
485.8631921824104,257.21979780301325,3.854005612709053,3.8540056127090527,253.59577066405075
486.5798045602606,256.04271458555854,4.387803598241956,4.387803598241955,254.06628106727405
487.2964169381107,258.3050088799194,4.045370199435402,4.045370199435402,252.80452793638153
488.0130293159609,257.05625441028127,4.71103539668532,4.71103539668532,254.50929010791026
488.72964169381106,256.2300378734854,4.1284787442369,4.128478744236897,255.7759827334495
489.4462540716612,256.4965151851679,3.3243705240432773,3.324370524043276,256.58628038824673
490.1628664495114,256.9626184065846,3.5030245315345683,3.503024531534569,254.41141495966738
490.87947882736154,257.98281356600944,3.0367917930516457,3.0367917930516497,253.62376842091646
491.59609120521174,256.54323909443804,4.147209911872422,4.147209911872424,256.2567803017895
492.3127035830619,256.6809679746545,4.682338621495636,4.682338621495637,255.6454769258912
493.029315960912,256.415289558651,3.373265012579744,3.3732650125797425,256.1075546312795
493.7459283387622,258.0111080389981,3.524339061298777,3.5243390612987757,254.3680656204682
494.46254071661235,256.8468081944102,3.054717459304717,3.054717459304714,255.44974620767087
495.17915309446255,256.6819394800424,3.2384500136043157,3.238450013604319,253.81682444973293
495.8957654723127,255.63977837913933,3.5625119703766583,3.562511970376657,255.9876266794836
496.61237785016283,258.00509814554914,3.9264909379354918,3.9264909379354873,254.7975984771823
497.328990228013,257.4624908990323,3.6967787905492386,3.6967787905492355,256.1772022604068
498.04560260586317,258.1719072514638,4.358966157271136,4.35896615727114,255.1037240267087
498.76221498371336,258.61738137834413,4.022263657005544,4.022263657005547,255.14744669892562
499.4788273615635,258.5868438812264,4.323876778679822,4.32387677867982,256.6662894383192
500.19543973941364,257.9535137342783,4.803204967628943,4.803204967628944,255.01224897141057
500.91205211726384,259.0768083281077,3.144550224510598,3.144550224510599,255.10418031694985
501.628664495114,259.6655938572425,3.287723061048748,3.287723061048747,254.1902680772896
502.3452768729642,259.83339992506086,3.846901028480112,3.8469010284801106,255.25495887233592
503.0618892508143,259.03198503555683,4.1007031975460295,4.100703197546029,255.07564560657053
503.77850162866446,258.5619522733573,3.8945094400814764,3.8945094400814764,255.7961426949082
504.49511400651465,259.9365195907674,4.107555567860627,4.107555567860628,256.4594523403617
505.2117263843648,258.2321009862612,3.7177169883587564,3.717716988358755,257.05284907432736
505.928338762215,259.3015059366782,4.098903007872408,4.098903007872409,257.0958984181603
506.64495114006513,259.0377597307204,3.6360860980173237,3.636086098017326,257.2507638209991
507.3615635179153,259.69936550563466,3.7341853846305133,3.734185384630516,256.85668721508443
508.07817589576547,260.3584788538524,4.256203686479021,4.2562036864790205,256.27160694842854
508.7947882736156,261.31984111546785,4.040523543233268,4.040523543233267,255.4983586377467
509.5114006514658,260.32162588302265,3.615636823551709,3.6156368235517062,257.71985207452354
510.22801302931595,260.39632889361974,4.525140873746069,4.525140873746067,256.7396234259525
510.9446254071661,259.02996483410004,3.826801620051509,3.8268016200515103,257.3376156304187
511.6612377850163,258.89836002898215,4.337536626965912,4.337536626965912,256.8863119760877
512.3778501628665,260.01459107283057,4.306833879989425,4.306833879989421,256.9231245503906
513.0944625407166,259.073917742699,3.974869744626321,3.9748697446263153,256.34385260948136
513.8110749185668,259.9766038614138,4.3649571815336365,4.364957181533639,256.6513546485694
514.527687296417,259.66789369903006,4.238819436236855,4.238819436236856,256.80518059160175
515.244299674267,260.07577906400206,4.228676319289494,4.228676319289491,259.29504160934
515.9609120521172,260.26778954250824,3.785356497915464,3.7853564979154655,257.9130149036973
516.6775244299674,259.98609354762004,4.144816450502068,4.144816450502071,256.82369683931813
517.3941368078176,261.1176671739658,3.7361178393987635,3.7361178393987635,257.9793335222293
518.1107491856677,260.4334383387677,3.8467458246371136,3.8467458246371136,258.10053635760096
518.8273615635179,261.47797204833233,4.081001966804244,4.081001966804246,256.4959621026831
519.5439739413681,259.8515965640672,3.912499512638636,3.9124995126386373,259.09841146157123
520.2605863192182,261.4981416315284,4.565849450540866,4.565849450540865,259.27730554260665
520.9771986970684,261.5780517601474,3.9523227743228775,3.9523227743228775,257.8061283500995
521.6938110749186,262.13865266566484,3.734951326443373,3.7349513264433725,260.2168665184761
522.4104234527687,260.7129216002634,4.223551232945098,4.2235512329451,259.43229109576436
523.1270358306189,261.8979967184122,3.7620374723248537,3.762037472324857,258.9715114376358
523.8436482084691,261.63598860755104,4.037891436256261,4.037891436256263,259.64983213223974
524.5602605863193,261.1865265002938,4.244119627775065,4.244119627775063,260.72144165456535
525.2768729641693,261.4605602286458,4.6625943580017815,4.662594358001785,259.907754788159
525.9934853420195,261.07689507319986,4.086034192208034,4.086034192208036,258.5193164264709
526.7100977198697,261.11329207769813,4.367909701366872,4.367909701366873,259.02096798499895
527.4267100977198,261.69105508722123,3.1865140846361144,3.1865140846361197,258.96940568244463
528.14332247557,262.5452825176559,3.8437597407626996,3.843759740762697,259.29656579974693
528.8599348534202,261.90466896452324,4.713401149161739,4.713401149161738,259.490691982783
529.5765472312703,262.44843005517765,3.935972826882928,3.9359728268829266,260.00516819065075
530.2931596091205,262.2926244899117,3.879348538531676,3.8793485385316773,260.83415694388657
531.0097719869707,262.9647656803165,3.8155226788999146,3.815522678899917,259.54894678023106
531.7263843648209,262.7564466676025,4.150455230589005,4.150455230589008,261.07772828423697
532.442996742671,261.75830337258463,3.97950807987854,3.9795080798785367,261.56911037914244
533.1596091205212,261.0596647027079,4.123739135712228,4.1237391357122295,261.5391044219213
533.8762214983714,262.8169634419435,3.7467343481365747,3.7467343481365742,261.28237939284037
534.5928338762214,262.3233916159607,3.9561638159518258,3.956163815951827,262.32992803363317
535.3094462540716,261.7183085959442,3.179695516987288,3.179695516987289,261.2821687986086
536.0260586319218,262.0617687707924,4.116559593323309,4.116559593323309,262.1564162294695
536.7426710097719,261.9779965201425,4.668448404907025,4.668448404907022,262.0884865621171
537.4592833876221,263.24339106831894,3.864970676756008,3.8649706767560064,260.11020710805946
538.1758957654723,263.4710106311033,4.022241727991616,4.022241727991614,261.90600789554077
538.8925081433225,263.08000383879,4.077395637697798,4.077395637697799,262.0634734407479
539.6091205211726,263.7284961849175,3.9179960094146344,3.9179960094146358,262.44139236142
540.3257328990228,263.44091037250917,4.011966119451954,4.011966119451957,261.6622679864429
541.042345276873,263.2958806419416,4.188606390534677,4.188606390534677,263.2998004133467
541.7589576547231,263.712491563013,4.624447972513315,4.624447972513316,262.41368115413746
542.4755700325733,263.2844201311735,3.576783561821492,3.57678356182149,262.5883484310346
543.1921824104235,262.7819139988318,4.289873798540196,4.289873798540196,263.7583384660142
543.9087947882736,262.5200127445267,3.875252686909671,3.8752526869096684,262.9958197956993
544.6254071661238,264.3554876772955,4.101114683728217,4.101114683728216,261.70033029630724
545.342019543974,263.9359171010447,4.308723696357929,4.308723696357924,263.62151858637384
546.0586319218241,265.71172165222816,3.430296092456814,3.4302960924568127,261.42039222091137
546.7752442996742,264.94736567429254,3.8839640623372094,3.8839640623372103,262.6534684990659
547.4918566775244,265.87351428494503,3.8156016586359587,3.8156016586359613,262.3606026758276
548.2084690553746,265.6832022484419,4.492083110934086,4.492083110934085,262.7412142276988
548.9250814332247,265.41113773076466,3.619417687733827,3.619417687733829,262.17440580180266
549.6416938110749,264.83726607960233,3.313961544956244,3.313961544956243,264.07865591928385
550.3583061889251,265.14371546336105,3.7954515978283765,3.795451597828375,263.39144102345153
551.0749185667752,265.61349547402426,3.3923823488499503,3.3923823488499503,262.7189014700271
551.7915309446254,265.65495321714104,3.4352775850793145,3.435277585079316,262.22058828846906
552.5081433224756,265.0556908623018,4.468060873653635,4.468060873653635,264.28657048329444
553.2247557003258,264.7476855885124,3.7676763203605708,3.7676763203605708,264.3223010976171
553.9413680781759,265.7215024424977,3.0007077631937586,3.0007077631937626,262.3853324016601
554.657980456026,265.29423131148195,3.304474386491222,3.304474386491222,263.66725667801495
555.3745928338762,264.00562726484094,3.0979823979151337,3.0979823979151364,264.87319010514045
556.0912052117263,265.57185678158527,3.324245507560675,3.324245507560675,264.86245347124947
556.8078175895765,264.62011987637624,3.4461492670795852,3.4461492670795866,264.99787483344585
557.5244299674267,264.99942842730763,0.3756091825433514,0.3756091825433526,267.3127074509344
558.2410423452768,265.9089213120141,3.212737280803277,3.2127372808032755,264.37554837557167
558.957654723127,266.5811184058793,4.238805248878602,4.2388052488786,264.2520244398779
559.6742671009772,264.9541687446597,2.293222988443783,2.2932229884437834,265.88897947268094
560.3908794788274,265.50495614791504,4.934192581812504,4.934192581812507,266.46479409400956
561.1074918566775,266.04603214056516,3.859324883124337,3.859324883124343,266.4984460939693
561.8241042345277,265.921088756295,3.9537712383246744,3.9537712383246744,266.42969842328296
562.5407166123779,265.8490603290231,3.799361124669709,3.7993611246697063,265.35340015193543
563.257328990228,266.1575516392374,4.109626432111496,4.109626432111493,266.1574797912887
563.9739413680782,267.0039413087519,4.217485267299941,4.217485267299941,265.6151468273089
564.6905537459284,267.47303098814257,3.965031686824211,3.9650316868242106,264.9532202923733
565.4071661237784,266.85590452021466,3.902440096940235,3.902440096940235,265.97522256975384
566.1237785016286,267.5109591573947,3.239600277450137,3.2396002774501342,266.2833477309729
566.8403908794788,265.66970105784947,3.2297384102900244,3.229738410290025,266.16393399609876
567.557003257329,266.05925121832036,3.6996274420493127,3.699627442049314,268.1877010062911
568.2736156351791,267.06659948782107,3.033685796548466,3.033685796548465,266.7533636954446
568.9902280130293,267.53207265433787,3.0518194242202044,3.051819424220207,265.42818068995854
569.7068403908795,266.7995621977814,3.505459076150455,3.505459076150455,264.14664798054304
570.4234527687296,266.94210686984655,2.771549598231698,2.771549598231697,265.91050257601756
571.1400651465798,265.8716840909827,3.8923855652538126,3.89238556525381,267.0190335362493
571.85667752443,266.80597272188254,3.8778420494279358,3.8778420494279344,266.5063950867823
572.5732899022801,266.4942346667838,4.3831554426449735,4.3831554426449735,266.3287959289243
573.2899022801303,267.4766598252441,4.291197755294348,4.291197755294345,266.47080198253747
574.0065146579805,266.63784598017696,3.4284487935581525,3.428448793558151,268.0066003946339
574.7231270358307,266.9494683960075,3.1704608316485934,3.1704608316485947,267.5039503948339
575.4397394136807,267.6223587087964,3.6141452534847884,3.6141452534847938,267.08176497900087
576.1563517915309,266.7460085008228,2.7050253961392405,2.705025396139243,268.7440827794367
576.8729641693811,267.63082053159735,3.140681752391353,3.1406817523913517,266.63860550285614
577.5895765472312,268.07365986947667,3.633732702542328,3.6337327025423294,266.72048118572195
578.3061889250814,267.1930031327355,3.730281451883387,3.730281451883388,268.43401315914565
579.0228013029316,267.0783959328877,2.5981838258561387,2.5981838258561325,268.5163777872312
579.7394136807817,267.76777268865055,3.1277767010278508,3.1277767010278477,266.92261441673423
580.4560260586319,267.7096701755745,3.593742040761128,3.593742040761128,266.71796909611294
581.1726384364821,266.40758944557825,3.116744406322898,3.1167444063228995,269.2005290653159
581.8892508143323,267.91773045336186,4.160938210496929,4.160938210496932,268.4245123819153
582.6058631921824,268.5211569617856,3.523883168304893,3.523883168304893,267.95382807604625
583.3224755700326,267.6842933274048,3.29663697426898,3.2966369742689814,268.7665697859296
584.0390879478828,267.84023173695334,3.512221722978231,3.512221722978231,266.881660574312
584.7557003257328,267.28634892524354,2.9834119022786862,2.983411902278686,268.41475091079343
585.472312703583,268.1229807074126,3.335053162146023,3.3350531621460258,267.5934527995898
586.1889250814332,269.00905657839934,3.432270624960513,3.4322706249605153,267.5137568608248
586.9055374592833,267.6431535601319,3.1739706945170583,3.173970694517057,268.8922619643168
587.6221498371335,267.1959140878133,3.5326539277857307,3.5326539277857294,267.3921791335603
588.3387622149837,267.4572401066763,3.6355081371258304,3.6355081371258304,268.1419330587649
589.0553745928339,267.4088165462538,3.1237113947832027,3.1237113947832014,269.3766612538389
589.771986970684,268.3935265761165,3.2692321612661583,3.2692321612661597,267.326613100387
590.4885993485342,268.5602294802971,3.532746015947565,3.5327460159475637,268.24317142109146
591.2052117263844,267.99996185694573,3.356258674824252,3.356258674824256,269.02439564465095
591.9218241042345,268.0865242133604,2.073186202154198,2.0731862021542007,267.28674836683444
592.6384364820847,268.14942975123864,3.916451144846388,3.916451144846391,269.38540165446653
593.3550488599349,268.9387305913163,2.9504460562298704,2.950446056229871,268.5601736182299
594.071661237785,267.93139942552364,3.6380822819457572,3.6380822819457532,269.01476966032544
594.7882736156351,268.74256428611903,3.6389323183240285,3.6389323183240316,270.1999499365273
595.5048859934853,268.0980075742915,3.374553067236062,3.374553067236059,270.70153004731753
596.2214983713355,268.07421267681934,2.8838476996328777,2.8838476996328737,270.6280687853615
596.9381107491856,268.1228608227708,2.8838841900580765,2.883884190058078,269.41687059200973
597.6547231270358,268.3982943126491,4.163132177033793,4.163132177033791,270.7821305133118
598.371335504886,269.2312207147635,3.267928521466825,3.267928521466825,269.6012943753076
599.0879478827361,268.8967570063722,2.6648284232002295,2.6648284232002335,269.08388083334756
599.8045602605863,269.57583323268227,2.5879388845449,2.587938884544902,270.53694372695435
600.5211726384365,269.29682350566725,3.8724352922655747,3.8724352922655734,269.90742616014444
601.2377850162866,269.43629261872724,2.491264081571025,2.491264081571026,270.9852992263265
601.9543973941368,269.44533609115916,3.4845862116780433,3.4845862116780455,270.4282066081065
602.671009771987,270.1865922686851,2.6938154425959073,2.693815442595906,270.7962916834753
603.3876221498372,270.8178430412086,3.5299480923891506,3.52994809238915,270.9233511663658
604.1042345276873,269.98684371992175,3.3309339481787967,3.330933948178798,271.2363717675989
604.8208469055375,269.485223386319,3.1195177601151842,3.119517760115183,271.2565460550009
605.5374592833876,268.7159729241191,3.105651399969195,3.1056513999691937,272.29631352473876
606.2540716612377,270.36408320322965,3.590122921700575,3.590122921700575,270.20501983585706
606.9706840390879,269.77528198135184,3.0808354290140754,3.0808354290140736,270.8159505347328
607.6872964169381,270.0371326340054,3.1323785125025516,3.132378512502549,271.1673044117674
608.4039087947882,269.64769143779426,3.5499834160954666,3.549983416095468,270.7185931122332
609.1205211726384,270.1886762440005,3.19019754036945,3.1901975403694505,270.02604880418517
609.8371335504886,270.23168375095435,3.367211332839345,3.367211332839348,270.1658733691956
610.5537459283388,269.156933492267,3.1520457110429074,3.1520457110429074,271.1795875816616
611.2703583061889,270.25038563623923,3.303304155283842,3.303304155283838,270.2158704185558
611.9869706840391,269.9236656907883,3.9464456124253307,3.9464456124253315,270.88805545683766
612.7035830618893,269.2469116722683,3.2552581153119924,3.255258115311991,271.13066379306275
613.4201954397394,269.7461091698501,2.9638880152869094,2.9638880152869103,270.30844043767223
614.1368078175896,269.5486978728713,4.35930099980221,4.359300999802211,270.72633771759183
614.8534201954398,270.11633846220724,3.544293188206538,3.5442931882065385,271.08394134746953
615.5700325732898,270.16046387133883,3.204820133228525,3.204820133228524,272.1570907247473
616.28664495114,270.22106833626526,3.3032613605696133,3.3032613605696133,271.843463834327
617.0032573289902,271.01099916001925,3.550756796480298,3.5507567964802926,271.15403582346477
617.7198697068404,270.2465040193564,3.68044877382979,3.6804487738297915,273.3080451564798
618.4364820846905,270.8693360055426,3.5662304972373686,3.5662304972373695,273.59796857023304
619.1530944625407,271.1933910533805,3.3659247159129615,3.365924715912959,272.4078258055875
619.8697068403909,271.26707863866955,2.6079700622265314,2.607970062226535,271.11856375558557
620.586319218241,271.4308249768676,3.899567170846046,3.899567170846045,272.3891164125059
621.3029315960912,270.97705172982035,3.5387734132789075,3.5387734132789044,273.55199047939453
622.0195439739414,271.59566348117613,3.922486342371239,3.9224863423712404,275.3763977359539
622.7361563517915,271.8825009963588,3.70667006840783,3.7066700684078286,274.1394558472009
623.4527687296417,271.3166913528335,3.28627114690653,3.286271146906533,272.9538606765126
624.1693811074919,271.59048327227987,3.576450605873624,3.5764506058736227,272.71600644428935
624.885993485342,270.71897710139166,3.2724345893558184,3.272434589355821,273.2196012947345
625.6026058631921,270.8810199289842,2.582830004165932,2.582830004165935,273.39906522035466
626.3192182410423,271.86092918890614,3.8263762719686545,3.826376271968656,272.7561485734747
627.0358306188925,272.06153330159384,3.7438100649542854,3.743810064954285,273.9755199218545
627.7524429967426,271.7654323017213,3.5318788998690995,3.5318788998690995,273.79907368585435
628.4690553745928,272.03651864056974,3.4119049043066316,3.411904904306628,271.99010432079115
629.185667752443,273.36313175416984,3.3836230616604697,3.3836230616604657,272.29264818690007
629.9022801302931,273.13564747249075,3.1295184567233925,3.1295184567233965,272.73507690629725
630.6188925081433,272.94811860864934,2.7629271486176563,2.7629271486176563,273.3271227225993
631.3355048859935,271.4447944451078,3.962082272002326,3.962082272002324,274.2039849333245
632.0521172638437,272.3697816252855,3.2193322634373605,3.2193322634373565,272.18120507621745
632.7687296416938,271.0044536765558,3.9263390002431513,3.9263390002431526,273.5693047133775
633.485342019544,273.0125332128217,3.978946471304992,3.978946471304992,271.685610581825
634.2019543973942,271.7521597893753,4.283637858687236,4.283637858687238,275.8802359138436
634.9185667752442,272.40175472147456,3.728156815978387,3.728156815978387,274.24633777153554
635.6351791530944,273.6446820570679,3.940707390279545,3.940707390279542,273.2469025743717
636.3517915309446,273.23302226158734,3.2505299798077005,3.250529979807698,272.93591556393244
637.0684039087947,272.7164143947101,4.376250400256612,4.376250400256607,273.0326916455741
637.7850162866449,272.28802154998067,3.9404437786606965,3.9404437786606965,274.2908458854508
638.5016286644951,271.89266502297266,3.7167264034041607,3.716726403404162,274.5375752059942
639.2182410423453,273.53945204545107,3.0165750522526507,3.01657505225265,272.43085547236535
639.9348534201954,270.95418254308606,4.09362321550109,4.0936232155010925,275.14331828967704
640.6514657980456,272.74277467401527,3.7441969944545064,3.7441969944545073,274.20007777439827
641.3680781758958,272.5775885639478,4.138109790702689,4.1381097907026865,275.1294581481098
642.0846905537459,271.30512245689994,3.762362409478182,3.7623624094781833,276.01954905289085
642.8013029315961,273.3124686158578,3.2369062937172752,3.2369062937172757,274.84188227954144
643.5179153094463,273.3605762815478,4.077680500378955,4.077680500378952,274.7205690926161
644.2345276872963,273.2828591425801,3.5580369976674113,3.558036997667412,274.53579741351825
644.9511400651465,272.83752666843634,4.178854593303129,4.178854593303126,274.58769707666517
645.6677524429967,273.52332968863436,3.251636144723051,3.2516361447230486,274.0259599771085
646.3843648208469,272.39629608907916,3.684054880915921,3.684054880915917,275.2417401284134
647.100977198697,273.2018149627126,4.018235249412592,4.018235249412596,274.9594508159301
647.8175895765472,273.4623891668307,3.4119889921715902,3.411988992171589,273.4074702701484
648.5342019543974,274.92625589196933,3.3271396411572525,3.327139641157255,273.65781559806226
649.2508143322475,274.25367401000204,3.3823406227126336,3.382340622712631,272.87636836443727
649.9674267100977,273.1403114770127,2.747925723933249,2.7479257239332475,275.7887777216779
650.6840390879479,274.23027814226975,3.726193914838601,3.726193914838601,274.5589006609964
651.400651465798,273.57035336335116,3.962864476743961,3.9628644767439645,277.5053849839936
652.1172638436482,275.92654065847415,3.1858012404386526,3.1858012404386513,276.4606264349758
652.8338762214984,276.4651545663014,3.8531574003273836,3.8531574003273823,277.1358330871728
653.5504885993486,276.722694472112,4.110436276589037,4.110436276589033,277.21156849869516
654.2671009771987,276.787668848707,4.0002073024317015,4.000207302431704,276.9221884163031
654.9837133550488,276.439275700088,3.1717360011297377,3.171736001129744,276.3904427909634
655.700325732899,276.1847601334643,2.869290975448246,2.8692909754482483,278.8920105868032
656.4169381107491,276.87418355985335,3.467966747071285,3.4679667470712836,277.52862508279657
657.1335504885993,275.84815506702284,3.635141888925144,3.6351418889251415,277.12226512445466
657.8501628664495,276.3935267610235,3.4872643414847855,3.4872643414847806,277.63562838572386
658.5667752442996,276.88510860067737,3.3317958738240936,3.331795873824095,278.26261627629293
659.2833876221498,277.27537885137104,3.006842151413222,3.0068421514132218,277.61259538777983
660.0,277.37857029503033,2.7220110149139143,2.7220110149139165,277.6908814234054
