z in mm,sigma xx in mm2,sigma xy in mm2,ysigma yx in mm2,sigma yy in mm2
660.0,245.60870790393915,9.059086496744625,9.059086496744625,233.15964993243404
659.372026641294,237.02093035202918,9.893701418582241,9.893701418582241,222.22833060246467
658.744053282588,236.99681797564654,9.91562843218277,9.91562843218277,222.0232630624521
658.116079923882,234.20803531089538,10.439978966173722,10.439978966173726,218.50602043175743
657.488106565176,233.9056119990295,10.291166779935963,10.291166779935967,218.9505096013671
656.86013320647,233.95514688297158,10.270498268596361,10.270498268596365,218.93365543812428
656.232159847764,234.0334244702239,10.460623709137796,10.460623709137796,218.91398995730447
655.6041864890581,234.11684710248565,10.385638206114754,10.385638206114754,218.4630219788206
654.976213130352,234.0857731046483,10.440874141012769,10.440874141012767,218.65948634105388
654.348239771646,233.8257099353523,10.624299272960647,10.624299272960647,219.2181648612468
653.7202664129401,234.20172239282203,10.274812197971297,10.274812197971295,218.61416487654535
653.0922930542341,234.04165225619548,10.241120095323746,10.241120095323742,218.91819141654983
652.464319695528,234.1578775365252,10.635105095832976,10.635105095832976,218.71136076449682
651.8363463368221,234.41598788838226,10.290513500760026,10.290513500760028,218.90322402817188
651.2083729781161,234.29147954965634,10.19780846207863,10.19780846207863,218.75212938031663
650.5803996194101,234.5326529358938,10.342041788308308,10.342041788308306,218.89915068385633
649.9524262607041,233.91386411361842,10.460928195876553,10.460928195876553,219.1100377061116
649.3244529019981,234.2040229154875,10.604504021365676,10.604504021365676,218.79752980495536
648.6964795432921,234.44146241826982,10.594412249210864,10.594412249210865,219.21035493099674
648.0685061845861,234.7739166812366,10.386761229397543,10.386761229397543,218.9352792508726
647.4405328258802,234.4360092643043,10.322617312540263,10.322617312540265,219.46586405248812
646.8125594671741,234.18968706213835,10.261378699385652,10.261378699385654,219.23954486828484
646.1845861084681,234.48938607014043,10.415932197496554,10.415932197496556,219.35549227459094
645.5566127497622,234.82004269351341,10.398439626857863,10.398439626857865,219.29430688573132
644.9286393910561,234.65472901138511,10.552796129618052,10.552796129618052,219.43426199617605
644.3006660323501,234.0169187513679,10.5388514540393,10.538851454039296,219.0480267062861
643.6726926736442,234.10958471467046,10.516579030424765,10.516579030424767,219.57661973177616
643.0447193149381,234.1004652988533,10.694501280415986,10.69450128041599,219.75788153476054
642.4167459562321,234.06385347313918,10.48133090124384,10.481330901243844,219.78955348617077
641.7887725975262,233.4560426048397,10.649958995542772,10.649958995542772,220.06119739672963
641.1607992388201,233.499175457937,10.651892513285597,10.651892513285603,220.01008131657287
640.5328258801142,233.2635825814085,10.629130743604733,10.629130743604733,220.26519026365722
639.9048525214082,232.8744830460288,10.980293554482486,10.980293554482486,220.0980295671751
639.2768791627022,232.8693510213411,10.993551734744873,10.993551734744873,220.865799318979
638.6489058039962,232.73214079894052,10.884411768371645,10.884411768371645,220.55639048203554
638.0209324452902,232.61759604018226,10.79677165585571,10.79677165585571,221.14451568274137
637.3929590865843,232.277877544122,10.688842378681265,10.688842378681265,221.1330526513529
636.7649857278782,232.35078148302182,10.768851063713448,10.768851063713448,221.01105762398353
636.1370123691722,232.1100593457317,10.975957464531398,10.975957464531401,221.57282119484972
635.5090390104663,231.35084621575513,10.757389618770397,10.757389618770397,221.61081994223994
634.8810656517602,231.64303918431185,10.990614444561402,10.990614444561398,222.06445698526878
634.2530922930542,231.188907176209,11.08591105358168,11.085911053581684,222.32467638254886
633.6251189343483,231.05721374690663,10.915541758534168,10.915541758534168,222.38483895524865
632.9971455756422,231.11706657197792,11.163159557231197,11.163159557231195,222.38252571162536
632.3691722169362,230.82458033308555,11.026512437859612,11.026512437859614,222.3658113362645
631.7411988582303,230.60142651356836,11.264741692746382,11.264741692746378,222.7576212375646
631.1132254995242,230.09454513101863,11.199284804159182,11.19928480415918,222.54313967264233
630.4852521408183,230.44513333410882,11.22010382045652,11.220103820456519,222.855571532787
629.8572787821123,229.8661563524556,11.277324415615515,11.277324415615512,223.40605724747945
629.2293054234062,229.20720874552575,11.65691299178198,11.656912991781981,223.71155067524876
628.6013320647003,229.4059977732375,11.240032460436247,11.240032460436245,223.64056262851582
627.9733587059943,228.92317185772856,11.382974171149355,11.382974171149352,223.63732715247053
627.3453853472884,229.09141220946873,11.443815770161669,11.443815770161669,224.31201184864588
626.7174119885823,228.24653404977792,11.588696055970036,11.58869605597004,224.08491056391813
626.0894386298763,228.14567865789186,11.659230867729095,11.65923086772909,223.95631696270468
625.4614652711704,227.7339205854482,11.73924623631188,11.739246236311885,223.6016482582104
624.8334919124643,228.2071033939298,12.004899675974084,12.004899675974084,224.38481318735785
624.2055185537583,227.855721116442,11.685173213342981,11.685173213342981,225.1410515537337
623.5775451950524,227.76043321430888,11.926648299347397,11.926648299347393,224.70496606803368
622.9495718363463,227.83540355090864,12.091046892666576,12.091046892666572,224.69671720765686
622.3215984776404,227.29629924977428,12.129716769113326,12.12971676911333,225.59847918042576
621.6936251189344,227.5231381852655,11.96313390126777,11.96313390126777,225.40272549114695
621.0656517602283,226.91234570272448,11.983073522445736,11.983073522445736,225.3358747276709
620.4376784015224,226.5256626419909,12.25555864677589,12.25555864677589,225.46797370133422
619.8097050428164,226.67387198179634,11.99236990349876,11.99236990349876,225.75836630787035
619.1817316841103,226.10935366580435,12.071896163113754,12.071896163113754,225.90739343494647
618.5537583254044,226.26941485111158,12.158984166881423,12.158984166881417,225.55689014527
617.9257849666984,225.51659394339836,12.105517157802321,12.10551715780232,226.30130906155586
617.2978116079923,225.80436226654254,12.211110214233546,12.211110214233548,226.63759163432752
616.6698382492864,225.21443917227725,12.225793821565105,12.225793821565105,226.6354345092646
616.0418648905804,224.91588880003889,12.226714664403252,12.226714664403255,226.49158450968264
615.4138915318744,224.84842509243532,12.281442725318492,12.28144272531849,226.86623157723932
614.7859181731684,224.47208912823953,12.371709608117675,12.37170960811768,227.29029649323462
614.1579448144624,224.64482955211648,12.546056496612842,12.546056496612842,227.15231022443473
613.5299714557564,224.47458488888037,12.685433265669511,12.685433265669518,227.1335604393838
612.9019980970504,224.23018682923083,12.479275484482633,12.479275484482635,228.08698475097012
612.2740247383445,223.88099151025847,12.560279481178146,12.560279481178144,227.8235764583485
611.6460513796385,223.97802789878565,12.538685842344123,12.53868584234412,228.19165312160507
611.0180780209324,223.7154637137627,12.594050565346468,12.594050565346468,228.3699979033068
610.3901046622265,223.1746846959409,12.70809762637656,12.708097626376562,228.8739911280683
609.7621313035205,222.94297618423127,12.791863247383757,12.791863247383755,228.7977923544525
609.1341579448144,222.72446088956718,12.87649969192322,12.876499691923216,228.2567690689988
608.5061845861085,222.89925921593664,12.880546225131168,12.880546225131168,228.70045027628535
607.8782112274025,222.20370275104145,12.99201567912329,12.992015679123293,228.98577082467855
607.2502378686964,222.12877145861563,12.990303335758325,12.990303335758325,229.5107709919909
606.6222645099905,222.15817966931397,12.593658722981854,12.593658722981859,229.23800176294824
605.9942911512845,221.96171773014103,12.979694414189398,12.979694414189396,229.79647302831808
605.3663177925785,221.69171299829867,12.960892259433047,12.960892259433047,229.75969716263657
604.7383444338725,221.27543846993484,13.010460176174767,13.010460176174767,229.82194739830783
604.1103710751665,218.89334165419356,13.67966440936046,13.67966440936046,228.61136877617577
603.4823977164605,219.80168512282864,13.423027102699105,13.423027102699107,229.16141518515457
602.8544243577545,220.2001233046468,13.505259866421163,13.505259866421161,230.187578991491
602.2264509990486,220.45384076712932,13.372148438691578,13.372148438691582,230.17271566417503
601.5984776403425,220.59054154212234,13.469655832839189,13.469655832839189,230.0863303274368
600.9705042816365,220.01622476835925,13.469198925841436,13.469198925841436,231.19499290088416
600.3425309229306,219.83470328356168,13.475410358883336,13.47541035888334,231.00618425800297
599.7145575642246,218.8151489129822,13.574166237914643,13.574166237914644,230.79276502404167
599.0865842055185,218.95472957641468,13.694794143301468,13.694794143301468,230.4484418792016
598.4586108468126,219.40317777882146,13.682959419104309,13.682959419104309,231.22967258674927
597.8306374881066,218.67950396253013,13.63136851609266,13.631368516092659,231.8494558274635
597.2026641294005,218.9707985183329,13.658782764592877,13.658782764592884,231.5200401657996
596.5746907706946,218.39390758036305,13.699152042329258,13.699152042329258,231.67687640144598
595.9467174119886,218.0666199462872,13.792419204524196,13.792419204524197,232.32676925815292
595.3187440532826,218.23725732654088,13.885578373910445,13.885578373910448,231.8202192687825
594.6907706945766,218.1590537052795,13.828150124185203,13.828150124185207,231.9702832423537
594.0627973358706,217.5929019633876,13.953504663634346,13.953504663634346,232.22725288546218
593.4348239771646,217.09901749173324,14.060069677892757,14.060069677892756,232.482801318425
592.8068506184586,217.25937562356398,13.249590422743989,13.249590422743992,233.3240644089954
592.1788772597527,216.87554406072573,13.998362466577502,13.9983624665775,232.61338197560679
591.5509039010466,217.0486445732228,14.151360795522923,14.151360795522923,232.761857198242
590.9229305423406,216.10016877667186,14.05032682871519,14.050326828715187,232.94394486781857
590.2949571836347,216.15560348328003,14.208053175764709,14.208053175764709,232.9804908600613
589.6669838249286,215.96657553837073,14.278561996815212,14.278561996815215,233.4707497472759
589.0390104662226,215.95270275760905,14.396168920862637,14.396168920862637,233.22113076367074
588.4110371075167,215.10361790709925,14.534216838342576,14.534216838342573,233.46371934177594
587.7830637488107,215.36924130623171,14.410455695860819,14.410455695860819,233.32881215296695
587.1550903901046,215.3079629304325,14.320042320496414,14.320042320496409,233.87799262024248
586.5271170313987,215.23703484143473,14.481544228210113,14.48154422821011,233.87042177478858
585.8991436726926,215.02109068638933,14.490482975362024,14.490482975362019,234.31773065492982
585.2711703139867,214.47567746030165,14.585187233956725,14.585187233956729,234.0470578840193
584.6431969552807,213.8629552912262,14.752199083538335,14.752199083538335,234.07381783278234
584.0152235965747,213.85867381533788,14.67396090542136,14.673960905421357,234.4249915863199
583.3872502378687,214.19075480304363,14.410666278465587,14.410666278465587,234.79185398453606
582.7592768791627,215.00434562612168,14.67807736563312,14.678077365633122,235.15702120182758
582.1313035204568,213.46733348661823,14.928924516811103,14.928924516811103,235.09879343467625
581.5033301617507,213.2307799783122,14.569833701707449,14.569833701707447,235.50402897744817
580.8753568030447,213.53192686770555,14.829433331476352,14.829433331476348,235.13813204816225
580.2473834443388,212.76334813366032,15.151711866090858,15.151711866090858,235.56305813728017
579.6194100856327,212.61571654956379,15.089740992835424,15.08974099283542,235.64776230923366
578.9914367269267,212.31870784061016,15.185171745285727,15.185171745285727,235.7550556506331
578.3634633682208,212.15909120838694,15.332267447371361,15.332267447371361,236.16530292266083
577.7354900095147,211.96615624851472,15.30417752218548,15.30417752218548,235.93121044520458
577.1075166508087,211.2083816641731,15.316476381202214,15.316476381202214,235.808820318639
576.4795432921028,211.33075637609113,15.370475969599996,15.370475969599996,236.09068942789997
575.8515699333968,211.4562393811016,15.170597495768984,15.170597495768984,236.43055018098883
575.2235965746908,210.80200261934343,15.388162615344145,15.388162615344152,236.26802221231318
574.5956232159848,210.73022434801427,15.417199811309631,15.417199811309628,236.56317653777472
573.9676498572787,211.05508758999835,15.860702610697661,15.860702610697654,236.83067612361066
573.3396764985728,210.17644020847845,15.630328915588887,15.63032891558889,236.76225702021472
572.7117031398668,209.32889035725304,15.646274496283688,15.646274496283688,237.26389835262802
572.0837297811609,209.9405827359557,15.395119616306538,15.395119616306541,237.33245911917683
571.4557564224548,209.49157908196153,15.58514091882042,15.58514091882042,237.5308477865943
570.8277830637488,209.01215334970362,15.666210941550695,15.666210941550695,237.61424713973108
570.1998097050429,208.83913865472925,16.120114549799304,16.120114549799304,237.67518885288382
569.5718363463368,208.9115628380719,15.78701708306002,15.787017083060016,237.94601765829142
568.9438629876308,208.78869456426125,15.818526463180229,15.818526463180236,238.10755736339846
568.3158896289249,208.11721710918965,15.946241951168423,15.94624195116842,237.93468380067938
567.6879162702188,207.92891850825268,15.970527085467399,15.970527085467399,238.16857023445482
567.0599429115128,207.49198796182685,16.162286295407796,16.1622862954078,237.85489103216636
566.4319695528069,207.7995933186336,16.15990504647923,16.159905046479228,238.18082496809325
565.8039961941008,206.9616029029656,16.162016334593424,16.162016334593424,238.68811891845877
565.1760228353949,206.5195868699297,16.25853172564279,16.258531725642786,238.8366845032458
564.5480494766889,206.77787167243144,16.12268718882282,16.122687188822816,239.17098484617742
563.920076117983,206.6753869254139,16.301427807873363,16.301427807873367,239.00972558780936
563.2921027592769,206.34809860474286,16.355449513528963,16.355449513528956,238.79582812700133
562.6641294005709,206.02370351906552,16.386945724380595,16.386945724380595,239.1259371876869
562.0361560418648,205.47007986153233,16.369548050074254,16.369548050074254,239.30036747138516
561.4081826831589,205.6155673165504,16.438779920591514,16.43877992059151,239.89279787607478
560.7802093244529,205.40518829511447,16.54194950965779,16.541949509657794,240.05179457526862
560.152235965747,204.9348428921799,16.536584862937048,16.53658486293704,239.8932182843258
559.5242626070409,205.3175868731074,16.53259314971994,16.53259314971994,240.1286303086316
558.8962892483349,204.79603535214414,16.333036856838422,16.333036856838422,240.1100337036063
558.268315889629,204.72870799417575,16.906051928722526,16.906051928722523,240.2862852722052
557.6403425309229,204.63492676111778,17.18874024093229,17.188740240932287,240.48155504322116
557.012369172217,204.19779126685543,16.956156286786566,16.956156286786566,241.15726444164872
556.384395813511,203.66080496512694,16.967846036805472,16.967846036805472,240.3970877420746
555.7564224548049,203.5387851620372,16.86707929529131,16.86707929529131,240.92632724047817
555.128449096099,203.3167568239209,16.635378770869327,16.635378770869334,240.86139160649418
554.500475737393,203.5802393099922,16.889804557902597,16.88980455790261,241.02183889157337
553.8725023786869,203.35677535036177,17.11257963704421,17.11257963704421,241.37848532387105
553.244529019981,203.02357409474806,17.0908883635608,17.0908883635608,240.87081025457556
552.616555661275,202.2108881663225,17.0340570292073,17.0340570292073,241.57854704542947
551.988582302569,202.2393430051081,17.074619554630353,17.07461955463035,242.04777589000474
551.360608943863,202.23231674371087,17.397640952057127,17.39764095205713,241.94470575151865
550.732635585157,202.0157114253772,17.207811213408437,17.207811213408437,242.18891238190625
550.104662226451,201.28782567310373,17.24292767669349,17.24292767669349,242.20298377504832
549.476688867745,201.5914235568913,17.329980282540095,17.329980282540088,242.08645081473014
548.848715509039,201.16085386836167,17.206800435934735,17.206800435934735,241.39033950864896
548.2207421503331,200.78209152066913,17.46077180416883,17.46077180416883,242.72574863782043
547.592768791627,200.43609175588253,17.318244146233646,17.318244146233646,242.64575748689185
546.964795432921,200.81158508515472,17.48355189115177,17.483551891151766,242.84919458464063
546.336822074215,200.05017682837206,17.66636430087011,17.66636430087011,243.29574499347976
545.708848715509,199.9684564257588,17.597485661941572,17.597485661941562,243.2627542527903
545.0808753568031,199.12716900205393,17.867766216259184,17.86776621625918,243.03945698531425
544.4529019980971,199.1533857399827,17.616829012024947,17.61682901202495,243.81397121258547
543.824928639391,199.5028816419971,17.759050540995563,17.75905054099556,243.18952295553743
543.1969552806851,199.37814181041264,17.989550517041092,17.989550517041096,243.63186904027168
542.5689819219791,198.86704853941427,17.837416421298855,17.83741642129886,244.1133351963
541.941008563273,198.7311720827046,17.863751098148594,17.86375109814859,243.96622820618174
541.3130352045671,197.97100275885703,17.992853893856424,17.992853893856424,244.18172144238792
540.6850618458611,198.36207035926176,18.073748195584347,18.073748195584347,243.64908645662987
540.057088487155,198.02693221498492,18.1888895977464,18.188889597746403,244.60576980644376
539.4291151284491,197.87218719405652,18.252817331069497,18.252817331069494,244.97437308973647
538.8011417697431,197.52209524347214,18.073307794365373,18.073307794365373,244.17603226366955
538.1731684110371,196.64175265668396,18.141570558436953,18.141570558436957,244.84304041691564
537.5451950523311,196.8823508015073,18.31916851526096,18.319168515260962,244.71605634777836
536.9172216936252,197.03871611648606,18.209129835098313,18.20912983509831,245.15982776772663
536.2892483349192,196.71782669173106,18.080076925584155,18.080076925584162,245.40022732735565
535.6612749762131,196.02389654105633,18.261352737740157,18.261352737740154,245.03197465853452
535.0333016175072,196.38747287358728,18.604192617658548,18.604192617658555,245.5824825531544
534.4053282588011,195.78158595241678,18.44206028706316,18.44206028706316,245.1982075990228
533.7773549000951,195.46949666928666,18.782297159241576,18.78229715924158,245.77861285142396
533.1493815413892,195.18594582012815,18.5879300162923,18.5879300162923,246.2076962162322
532.5214081826832,195.61175729696296,18.792924196068814,18.792924196068807,245.75982212826906
531.8934348239771,195.39250163657292,18.978537013658386,18.978537013658382,246.16666724541398
531.2654614652712,194.61428835247128,18.586624789268082,18.586624789268082,246.23958872985196
530.6374881065651,194.31014239498202,19.016728624057315,19.016728624057315,246.86849073833497
530.0095147478592,194.30332883539108,18.786681993448056,18.786681993448056,246.07500766908817
529.3815413891532,193.64659063184487,19.165532656531507,19.165532656531514,247.076047097193
528.7535680304472,193.48481143923064,19.059380017369747,19.059380017369744,247.1723269752259
528.1255946717412,192.94563939249244,18.930688101961568,18.93068810196157,246.79025831008917
527.4976213130352,193.05479188515463,18.82255844779358,18.822558447793583,246.73984787609206
526.8696479543293,192.96618663444087,18.73309308701251,18.733093087012506,247.04813171680564
526.2416745956232,192.83947293839125,19.079217842831124,19.079217842831127,247.29901702260779
525.6137012369172,192.62839998863566,19.06774015842203,19.067740158422026,247.5646966090291
524.9857278782113,192.31472397295843,19.410130945180015,19.41013094518002,247.56722334071333
524.3577545195053,192.37772749896624,19.239942161660473,19.239942161660473,248.03889602236995
523.7297811607992,191.73028229762198,19.196197053750833,19.19619705375084,247.6198420002438
523.1018078020933,191.5570278445544,19.361548053875136,19.36154805387514,248.3014801431211
522.4738344433872,191.82949578014652,19.383434721045862,19.383434721045862,248.28340135410096
521.8458610846812,191.73771414539078,19.588536058340953,19.588536058340946,248.33582769533615
521.2178877259753,191.01522503287077,19.66248960545751,19.662489605457512,248.72526830825086
520.5899143672693,190.28373777943702,19.786530490625903,19.786530490625903,248.32358122108454
519.9619410085633,190.31029772027892,19.598080852120663,19.59808085212066,248.3976090407057
519.3339676498573,189.98912349393984,19.795309504160823,19.79530950416082,248.95264507863735
518.7059942911512,189.90064640693905,19.461321523454927,19.461321523454927,248.55949901561786
518.0780209324453,189.5713095279013,19.770889785323387,19.770889785323384,248.74094889218057
517.4500475737393,189.56421491111786,19.52612260803902,19.526122608039024,249.05542877051508
516.8220742150334,189.13344625952462,19.982392526067716,19.982392526067716,248.94228307486404
516.1941008563273,189.28298292096193,19.91294752006764,19.91294752006764,249.17092230683724
515.5661274976213,189.0244477668726,20.004997019774382,20.004997019774382,249.6605271636374
514.9381541389154,188.44601730388163,20.089170200126627,20.089170200126624,249.62704078189176
514.3101807802093,188.5829643616936,19.792938645373916,19.792938645373916,249.65901202612983
513.6822074215033,188.035206503317,20.194814786584722,20.194814786584722,250.3327136143253
513.0542340627974,188.3358148789836,19.842904244113406,19.842904244113406,250.08028686066092
512.4262607040914,187.98701060153124,20.049290331447985,20.049290331447978,249.71713757961027
511.79828734538535,187.52546302999255,20.25133995404537,20.25133995404537,250.5318865649263
511.1703139866794,187.50663009385588,20.12419651719281,20.124196517192818,250.55748892453977
510.5423406279734,187.17492240406372,20.18873376275458,20.18873376275458,249.82759642981378
509.91436726926736,187.3512095492712,20.373906438575542,20.373906438575542,250.29512140984562
509.2863939105614,186.93902354525397,20.336345414841656,20.336345414841656,250.171659800498
508.6584205518554,186.54369186601593,20.351958495489512,20.351958495489512,250.79718290452013
508.03044719314937,186.29447087585257,20.5212709316992,20.5212709316992,251.1088640239906
507.4024738344434,185.61452271249925,20.835460546526313,20.835460546526313,251.1083394327773
506.7745004757374,185.508705855664,20.5744089074017,20.574408907401693,251.3141655236447
506.1465271170314,185.1242173899301,20.473722168286052,20.473722168286052,250.7668867872527
505.5185537583254,184.9579437289992,20.705962668190146,20.705962668190143,251.9153026391712
504.8905803996194,185.23703976738443,20.953460639997726,20.953460639997733,251.8869670409936
504.2626070409134,184.94419440676123,20.98917372707421,20.98917372707421,251.77442581776424
503.63463368220744,184.67311738577436,20.886830189834754,20.886830189834754,251.8614954741019
503.0066603235015,184.62369962564432,21.029633494890923,21.029633494890923,251.80391445504608
502.3786869647954,183.84619597964664,21.056307823249185,21.05630782324919,252.42384964264517
501.75071360608945,183.8681550542331,20.890457263710836,20.89045726371084,252.7512748929215
501.1227402473835,183.81903439632518,20.913894747249028,20.91389474724903,252.40452728365705
500.4947668886775,183.20407167582343,21.02365082519816,21.02365082519816,252.15273083341108
499.86679352997146,183.77110347494798,21.192814628760733,21.192814628760733,252.48362074394947
499.2388201712655,183.61869133123173,21.165347820543733,21.16534782054374,252.68995289112075
498.6108468125595,183.07614916035052,20.956551897390444,20.956551897390437,252.7295342283204
497.9828734538535,182.90389608064822,21.308453594349018,21.308453594349018,253.23920610255504
497.3549000951475,183.2486602033396,21.55222833126852,21.55222833126852,253.24571722254785
496.7269267364415,182.98441821366757,21.14470577926589,21.144705779265895,252.6036777598794
496.0989533777355,182.8174820744922,21.510238747540896,21.5102387475409,253.82526067083992
495.4709800190295,181.75987283373482,21.37397929756439,21.37397929756439,253.8747177140981
494.8430066603235,181.96874819447254,21.43769593773028,21.437695937730272,253.36065747980916
494.2150333016175,181.79794016745885,21.636308365777236,21.63630836577724,253.8031357748099
493.58705994291154,181.0294189066063,21.730052738988046,21.73005273898805,253.20366933930242
492.9590865842055,181.41631271828655,21.858923415336445,21.858923415336445,254.0036396864989
492.3311132254995,180.51858518368633,21.841481182934338,21.841481182934334,254.36501238600627
491.70313986679355,173.96262631476384,23.03591296549956,23.03591296549956,258.1598716539882
491.07516650808753,173.5129597449622,23.17782226252685,23.17782226252685,257.9358296092118
490.4471931493815,173.35666352611068,23.294328970721956,23.294328970721963,258.52760064173435
489.81921979067556,173.34925587193462,23.598784320373944,23.598784320373944,257.89268864679514
489.1912464319696,173.50063095363004,23.403349470194232,23.403349470194236,258.9769329727624
488.56327307326353,172.87513209566006,23.449706347330824,23.449706347330824,259.04853711111247
487.9352997145576,172.6236275683447,23.36622754819885,23.36622754819885,258.49442991125824
487.3073263558516,172.62302490273936,23.496798071361052,23.49679807136106,259.02592923282475
486.6793529971456,171.82937833552748,23.471219814240964,23.471219814240957,258.5422406191767
486.0513796384396,172.4636658264893,23.773896155400266,23.773896155400262,258.7355062655354
485.4234062797336,171.7222627983588,23.637368633450613,23.637368633450613,259.59920704026234
484.7954329210276,171.96486330872168,23.630118658147882,23.63011865814789,258.9593418294143
484.1674595623216,172.05188412965734,23.75783555609442,23.757835556094417,259.5779108625826
483.53948620361564,171.28866140718253,23.760488650111434,23.76048865011143,259.15165810144396
482.9115128449096,171.38871874429535,23.97204689353849,23.97204689353849,259.75801994882244
482.2835394862036,170.97125424239545,24.032824036125298,24.0328240361253,260.010863335202
481.65556612749765,171.02496407297974,23.91757804170869,23.91757804170869,260.2875188981771
481.02759276879164,170.65237054459192,23.8988530509807,23.8988530509807,260.4044003790609
480.3996194100856,170.66898040591582,24.068326096258346,24.068326096258343,260.4138413805936
479.77164605137966,169.86012489680638,24.19239105093586,24.192391050935868,260.405221638923
479.14367269267365,169.70690034628615,24.103854761467304,24.103854761467304,260.7783549430395
478.51569933396763,169.7009374399293,24.204002466391948,24.204002466391945,260.1106237242148
477.8877259752617,170.14272284864128,24.341110892240188,24.341110892240188,260.73849169428786
477.2597526165557,169.40010860197955,24.680498781007778,24.680498781007785,260.58514057040287
476.63177925784964,169.50310912790903,24.661710014295622,24.661710014295622,260.7499479724609
476.0038058991437,168.86293862132027,24.62166184640749,24.621661846407484,261.66150700646244
475.3758325404377,169.07870218778453,24.768940347509616,24.76894034750962,260.83177148306834
474.74785918173166,168.81508815215108,24.621214580614218,24.621214580614218,260.9807906023825
474.1198858230257,169.1600372109927,25.25094564502305,25.250945645023045,261.6454167713673
473.49191246431974,167.99354745283446,24.70277889064858,24.702778890648577,261.5673739667235
472.8639391056137,167.8439072544915,24.549596706123708,24.549596706123708,261.59235458445636
472.2359657469077,168.2896945874868,24.881929866216662,24.881929866216662,261.5327561958964
471.60799238820175,167.63026215631282,24.825555130926425,24.825555130926425,261.75243505551606
470.98001902949574,167.79630937311347,24.73907976304998,24.73907976304998,261.8576334331793
470.3520456707897,167.38533079413796,24.87160241746974,24.87160241746974,262.1080883896957
469.72407231208376,167.44840018134192,25.102083337552163,25.10208333755216,262.61792549136385
469.09609895337775,167.12557456681247,24.90884703459367,24.908847034593673,262.4780568106925
468.46812559467173,166.99792368912625,24.74565349199675,24.745653491996745,262.5946469155504
467.8401522359658,166.5801927927755,25.18469634649197,25.18469634649197,262.4958619329927
467.21217887725976,167.0969848446148,25.161061087331323,25.161061087331323,262.4800702538307
466.58420551855374,166.36973982445204,24.94480974931191,24.94480974931192,263.0601438019091
465.9562321598478,166.43090280755595,25.153786865920633,25.153786865920633,262.3792749476458
465.32825880114177,166.56736155813505,25.140450406092995,25.140450406093002,262.5153431055664
464.70028544243576,166.04686273834778,25.11621177051638,25.116211770516376,262.488352497797
464.0723120837298,166.04532434497693,25.14892909177417,25.14892909177417,262.8292103554815
463.44433872502384,165.8728895146276,25.168514276156635,25.168514276156635,263.3540731199619
462.81636536631777,165.7048474608481,25.428313313140176,25.428313313140183,262.79270932451436
462.1883920076118,166.31643865663898,25.29373372020429,25.29373372020429,262.9936537904717
461.56041864890585,165.14917601300414,25.27779368664991,25.277793686649915,263.0622287392133
460.93244529019984,164.94930949213455,25.601409135261235,25.601409135261232,263.465617669439
460.3044719314938,165.30552739221963,25.504769926944448,25.50476992694444,263.73859801566226
459.67649857278786,165.57611106824388,25.48124705006379,25.48124705006379,263.3098098708203
459.04852521408185,164.40804322944362,25.485510735804475,25.485510735804482,263.9632907801671
458.42055185537583,164.3831143224523,25.731883294622868,25.731883294622868,263.8126063221905
457.7925784966699,164.41316861434646,25.93242724482708,25.93242724482708,264.25357792150294
457.16460513796386,163.22152921121557,25.72424006432808,25.72424006432808,264.3542430259782
456.53663177925785,163.71657048420406,25.823740828182753,25.823740828182753,263.81538367290506
455.9086584205519,163.92971673891407,25.685187216634855,25.68518721663485,264.86534697111193
455.2806850618459,163.01171713883207,25.767887586989502,25.767887586989506,264.34857894478597
454.65271170313986,163.24200271431033,26.30286574119101,26.30286574119101,264.5361541449284
454.0247383444339,162.90744100465864,25.970421280808903,25.9704212808089,264.5072647747272
453.3967649857279,162.5551424565336,25.90888116979909,25.908881169799088,264.2527106398317
452.76879162702187,162.08912326486043,25.92242629434957,25.92242629434957,264.69996839359584
452.1408182683159,161.9189145410437,26.198724425740142,26.19872442574015,264.6664398632263
451.51284490960995,162.4603845559579,26.276953904155295,26.276953904155302,264.1652554290548
450.8848715509039,161.7550752017361,26.234448723710372,26.234448723710365,264.9763428032696
450.2568981921979,161.9928879674646,26.46263172508024,26.46263172508024,264.5616416910191
449.62892483349196,161.40528561922363,25.9775734160589,25.977573416058895,265.0484933769427
449.0009514747859,161.34256838672647,26.118616350822492,26.118616350822492,265.3705071488765
448.37297811607993,162.05594449584612,26.829645783401208,26.82964578340121,264.94130685294965
447.745004757374,161.24560320375292,26.636169312651326,26.63616931265132,265.32910289981123
447.11703139866796,160.91228264025875,26.475547907839292,26.4755479078393,265.4719868436475
446.48905803996195,161.50066671077408,26.58170748377479,26.58170748377478,266.1180094894634
445.861084681256,160.6907442396071,26.525126941445933,26.525126941445933,265.783715389496
445.23311132255,159.0142273901813,26.851156245718123,26.85115624571813,264.7534856590842
444.60513796384396,160.03590685844532,26.45889821676793,26.458898216767924,265.757608816293
443.977164605138,160.24093302408784,26.640212889414578,26.640212889414578,265.9915941651246
443.349191246432,160.19565271702933,26.757798552091167,26.757798552091167,266.2194758411065
442.72121788772597,159.5861801754638,26.201896044196015,26.201896044196022,266.5477105587405
442.09324452902,159.59160703634237,26.915615652400366,26.915615652400366,266.35669012190993
441.465271170314,158.98973433450098,26.767661560125344,26.76766156012535,266.78947588471783
440.837297811608,159.5004762686529,26.75396017679477,26.75396017679477,266.5331211413875
440.209324452902,159.68372953594036,26.628646692414,26.628646692414012,266.4392941997701
439.581351094196,159.14455434178828,26.902431057486485,26.90243105748649,266.36969896805397
438.95337773549,159.78303553368616,26.96710515438571,26.967105154385717,266.6205572100015
438.32540437678404,158.86339020113337,26.786565196279664,26.786565196279664,267.30846858154564
437.6974310180781,158.62737096529915,27.11979008410604,27.11979008410604,266.60716247154585
437.069457659372,158.688862918235,26.755781939182327,26.755781939182317,266.8734853264362
436.44148430066605,158.69694100183068,26.980661338568034,26.980661338568034,267.67569989331844
435.8135109419601,158.50344053245223,26.986275390629668,26.986275390629665,267.5552285488927
435.1855375832541,158.1188430564398,27.01897998054072,27.01897998054073,267.79893450711114
434.55756422454806,158.13418829460383,27.088103971617016,27.088103971617016,267.78622829642853
433.9295908658421,158.67841199159628,26.96599774414357,26.96599774414357,267.923397336453
433.3016175071361,158.88389908944526,27.304502246711262,27.304502246711266,267.52382188705104
432.67364414843007,158.68604407400392,27.295033370805623,27.295033370805626,268.0709402138929
432.0456707897241,157.36088145729707,27.407150514475877,27.40715051447587,267.83716910753424
431.4176974310181,157.36565169920522,27.48418078889599,27.48418078889599,268.03036779965896
430.7897240723121,157.6281310854398,27.45892898622407,27.45892898622408,267.9041754958895
430.1617507136061,157.28213928635333,27.230037612341516,27.230037612341526,268.5397203068322
429.5337773549001,157.2424575227809,27.70991173172146,27.709911731721455,268.06595740625676
428.9058039961941,157.13692951404977,27.43200858039761,27.432008580397607,268.54627737265463
428.27783063748814,156.82244763002333,27.66639169236083,27.66639169236083,268.62774961527003
427.6498572787821,157.5620727971432,27.531895933207554,27.531895933207547,268.7127310498321
427.0218839200761,156.74437969958737,27.247774113166084,27.247774113166084,268.7452058757952
426.39391056137015,156.69729380256757,27.531919531492928,27.531919531492925,268.81746600858617
425.76593720266413,157.29089326543613,27.702040823454166,27.702040823454166,268.8264705665039
425.1379638439581,156.79248848352196,27.809061573496802,27.809061573496802,269.569693145961
424.50999048525216,156.59909416768173,27.72256042717309,27.722560427173093,269.91744897668286
423.8820171265462,156.03070239382453,27.659255403129617,27.659255403129624,268.9297905698887
423.25404376784013,155.57635620842703,27.918664317985417,27.918664317985414,269.63305190906146
422.6260704091342,156.55306542354217,28.06295008159907,28.062950081599066,269.38014171382315
421.9980970504282,155.8964902674023,27.933650866085763,27.933650866085756,269.565429711294
421.3701236917222,155.743902304962,28.000286516487936,28.000286516487936,270.13852254775975
420.7421503330162,155.7930535602643,27.839698723326872,27.839698723326872,269.3494446297191
420.1141769743102,155.79102979060067,28.187476493351358,28.18747649335136,270.13033447656346
419.4862036156042,156.24785570283436,28.016660646328898,28.01666064632889,270.3661410844554
418.8582302568982,154.41928606306521,28.6713310921453,28.67133109214531,271.755541908288
418.23025689819224,153.6969732260848,28.40211862222166,28.402118622221664,272.6958815339941
417.6022835394862,153.5616334475576,28.745703316024816,28.745703316024816,272.15807126264616
416.9743101807802,153.65239112096862,28.615302402289956,28.615302402289963,272.32847397841687
416.34633682207425,153.8690147356607,28.661640105432213,28.66164010543222,271.8521385913771
415.71836346336823,152.91212991670818,29.12788651201136,29.12788651201136,273.1945597740732
415.0903901046622,152.88295450293273,29.089158531733233,29.089158531733233,272.44206303345334
414.46241674595626,153.0367823555768,28.758387795479926,28.75838779547992,272.8148800540105
413.83444338725025,152.6914220821817,29.098087026358552,29.098087026358552,272.65022911512136
413.20647002854423,153.05557193452657,28.77930219808883,28.77930219808883,272.63378473960796
412.5784966698383,152.97036514481053,28.607208077119395,28.607208077119395,273.51400187411616
411.9505233111323,152.9684604312219,29.19053051818326,29.19053051818326,272.82376714549923
411.32254995242624,153.7416406392485,29.056015059563208,29.056015059563208,272.8063167639711
410.6945765937203,153.10606077220962,29.15496250626748,29.15496250626748,272.75867902907197
410.0666032350143,153.4711845140575,28.868340945003833,28.868340945003844,272.42313141048425
409.43862987630826,152.7847664017112,28.87320601612488,28.87320601612488,273.1437225275948
408.8106565176023,152.68888377856916,29.322243686836376,29.322243686836373,273.6415112578659
408.18268315889634,152.69304290657604,28.8809540148393,28.8809540148393,274.1500888796895
407.5547098001903,153.30282188693153,29.257899293058564,29.257899293058564,273.778504751173
406.9267364414843,151.841638145725,28.62467820547779,28.62467820547779,273.7461680334717
406.29876308277835,152.6722913913284,28.701903701877285,28.701903701877285,273.51164737935545
405.67078972407234,152.68485973503206,29.193173395539993,29.193173395539993,273.5494300108677
405.0428163653663,152.55068956815757,29.4029177476409,29.4029177476409,273.5621681634662
404.41484300666036,151.96284736411803,29.399789071054162,29.399789071054162,273.78899927612497
403.78686964795435,150.8387069276403,29.325968355517922,29.325968355517933,273.99679625218187
403.15889628924833,151.86411162211897,29.59701985235029,29.59701985235029,273.9854543967484
402.5309229305424,152.17757416415495,29.24963828386471,29.249638283864712,273.94556397404665
401.90294957183636,151.36671616020357,29.72802569006329,29.728025690063294,274.556849775916
401.27497621313034,151.88861315699629,29.435946727855193,29.435946727855193,273.57174341546835
400.6470028544244,151.36982127728996,29.464331181326873,29.464331181326877,274.41381810462644
400.01902949571837,151.64163845596397,29.50590570901678,29.505905709016787,274.2122580772077
399.3910561370124,151.27099079794326,29.316128338778174,29.316128338778174,274.55124156671945
398.7630827783064,151.2233031883965,29.471543505487663,29.471543505487666,274.5405564083351
398.1351094196004,151.0315215458308,29.489218880890135,29.489218880890135,274.37710572096455
397.5071360608944,151.05976359215464,29.546816436945054,29.546816436945054,274.4423423152361
396.8791627021884,150.49792239529285,29.667817917818333,29.667817917818333,274.78876298446744
396.2511893434824,150.93924203789453,29.8114143907694,29.811414390769396,274.535600907923
395.62321598477644,151.06497744867866,29.428743873808163,29.428743873808166,274.5059187102498
394.9952426260704,150.87803141186498,29.619812218276746,29.619812218276746,274.5924443398729
394.3672692673644,150.8673418868714,29.663530553710654,29.663530553710654,275.15526490347037
393.73929590865845,150.45816303350256,29.6085557397746,29.60855573977459,274.6630739374519
393.11132254995243,151.16815824611166,29.784042131793925,29.78404213179393,275.0739841254582
392.4833491912465,150.6663864310671,29.755991697806206,29.755991697806206,275.3521889688754
391.85537583254046,150.71521069266424,30.03725646012669,30.03725646012669,275.58722629916093
391.22740247383445,150.79023121312574,29.69573372173957,29.695733721739572,275.55189732878347
390.5994291151285,151.0310346236886,29.55668975570125,29.556689755701257,275.3125929822755
389.9714557564225,151.39971597176273,29.318485049957843,29.31848504995784,275.4285888732691
389.34348239771646,150.2231301826159,29.82429022559482,29.824290225594808,275.1060009378446
388.7155090390105,140.0747627409018,31.20311440249113,31.20311440249113,272.8754691083008
388.0875356803045,140.43441120084327,31.183915574654414,31.183915574654403,272.8898110835048
387.4595623215985,140.58833983082266,31.553919300915307,31.553919300915307,272.6435575868905
386.8315889628925,136.96854956474644,31.591346023959538,31.591346023959538,272.57279856497127
386.2036156041865,137.1151133614224,31.3210707133556,31.3210707133556,272.85575936846766
385.57564224548054,138.0491124006273,31.561688021819794,31.561688021819794,272.23893221178366
384.9476688867745,137.31437502396784,31.34682721024072,31.34682721024072,272.95320942253875
384.3196955280685,137.23559640532395,31.91503475123708,31.91503475123708,272.5203768195421
383.69172216936255,137.24479746373115,31.72314503998662,31.72314503998662,272.56712005214456
383.06374881065653,137.2086663294138,31.809329654883573,31.809329654883573,273.0251306324821
382.4357754519505,137.3141577487364,32.214720038260985,32.214720038260985,272.79446186086244
381.80780209324456,136.70155507884974,31.960056203405248,31.96005620340524,273.0786891217722
381.17982873453855,137.10083780175435,32.018460712572846,32.018460712572846,272.90849032326
380.5518553758326,136.80119464716424,31.617907543464977,31.617907543464977,272.71678215500333
379.9238820171266,136.76396738995737,31.63362670577839,31.633626705778394,272.55464524428174
379.29590865842056,137.4453762371892,31.77767676507281,31.77767676507281,273.1243455799876
378.6679352997146,137.41245981158443,31.78333490298095,31.78333490298095,273.6060283918697
378.0399619410086,136.95882495463937,31.741085222754936,31.741085222754936,273.4849289006309
377.41198858230257,136.5792022711829,32.2220291227106,32.2220291227106,273.39361045664236
376.7840152235966,136.12563258495973,32.155082222501605,32.155082222501605,273.10634645737304
376.1560418648906,136.4211939453966,32.391334627412775,32.391334627412775,273.72310623414296
375.5280685061846,136.7597904731268,31.88891243089927,31.888912430899275,273.2395857633189
374.9000951474786,135.7644960627985,31.831660241305617,31.831660241305627,274.318141625668
374.2721217887726,136.55434104682237,31.837252980050522,31.837252980050522,273.8882698213969
373.64414843006665,136.08203191225306,32.13157966758599,32.13157966758599,274.033239342746
373.01617507136064,136.65631881173948,32.014455835363606,32.014455835363606,274.0446675796442
372.3882017126546,136.68206004611272,31.842105189871724,31.842105189871724,274.478541784748
371.76022835394866,136.2862188332426,32.02994401816104,32.02994401816103,274.1825229496459
371.13225499524265,135.91360078445538,32.34369242336133,32.34369242336133,274.2307444978485
370.50428163653663,135.0391413197837,32.14886002072033,32.14886002072032,274.004383783363
369.8763082778307,135.29461637392134,32.17010560999277,32.17010560999277,274.2917675943681
369.24833491912466,135.43199183145256,32.27813756973065,32.27813756973065,274.01709986737245
368.62036156041864,135.61904688951938,32.27488617732031,32.27488617732031,273.1851433752464
367.9923882017127,135.18870636301602,32.273756493862976,32.273756493862976,275.2344063271648
367.36441484300667,134.88194412357615,32.155321533963615,32.15532153396363,274.0396064499107
366.7364414843007,134.92651858893967,32.0597916956852,32.059791695685206,274.8417783299632
366.1084681255947,134.57756328567953,31.998451032376284,31.998451032376284,274.6016908476471
365.4804947668887,135.07971692670364,32.33751448282879,32.33751448282879,274.5858172736316
364.8525214081827,135.26437419437738,31.9953539163894,31.9953539163894,274.4895935060629
364.2245480494767,134.64856492047068,32.42709794265964,32.42709794265965,274.28648122700736
363.5965746907707,135.2144709071461,32.2481108923211,32.2481108923211,274.91743610673984
362.96860133206474,135.13771459750836,32.2485062658639,32.2485062658639,274.7039740050759
362.3406279733587,134.13621219873477,32.6360954638739,32.6360954638739,275.1088396758565
361.7126546146527,133.84358463586332,32.25505194143219,32.25505194143218,274.58344925223975
361.08468125594675,134.377618984572,32.14827935250691,32.14827935250691,274.53567969201765
360.45670789724073,134.48134600503428,32.36349514186419,32.363495141864185,275.3990403068893
359.8287345385348,134.84657844492688,32.14841630565951,32.14841630565951,274.4722457940759
359.20076117982876,134.98542122490957,32.4184923395145,32.4184923395145,274.85898049476924
358.57278782112274,134.77854436182812,32.32434610171118,32.32434610171118,275.07515481874196
357.9448144624168,133.82937246593175,32.358939362147986,32.358939362147986,275.3714988587569
357.3168411037108,133.25258940787708,32.40083308166714,32.40083308166714,275.5762987029199
356.68886774500476,133.63144809140914,32.15216581363047,32.15216581363047,275.10365524155526
356.0608943862988,133.84699723317695,32.55199948212602,32.55199948212603,275.72254426831495
355.4329210275928,133.9796585671109,32.35001322281881,32.35001322281881,275.5156847200932
354.8049476688868,133.77907124409552,32.76429384773285,32.76429384773285,275.2508923750645
354.1769743101808,134.03729113280056,32.5850763896445,32.5850763896445,275.8294550545253
353.5490009514748,133.92794097004912,32.63829724587998,32.638297245879976,275.8587918524784
352.92102759276884,133.16879054417197,32.87918664850849,32.87918664850849,275.80515646967376
352.2930542340628,132.9400587372039,32.10895109570775,32.10895109570775,276.4683652682764
351.6650808753568,132.3971016682852,32.4578905840066,32.4578905840066,276.11121580782225
351.03710751665085,133.871824813853,32.18937541130553,32.18937541130552,276.59030362106074
350.40913415794483,134.25089857564365,32.34118222720642,32.34118222720642,276.35693491839436
349.7811607992388,134.24058627000403,32.63722616344123,32.63722616344123,276.6385692609628
349.15318744053286,132.4142510250601,32.39046897099068,32.39046897099068,275.91756987907564
348.52521408182685,133.6294324508076,32.36156266431181,32.36156266431181,276.8479670282565
347.8972407231209,133.8708981665919,32.30696973688923,32.30696973688923,276.86660688655843
347.2692673644149,133.81748743458672,32.0548233856773,32.0548233856773,277.2324561328553
346.64129400570886,133.55689618254883,32.70531960913105,32.70531960913105,277.3984060383499
346.0133206470029,133.68574507779672,32.390297751205054,32.39029775120505,277.2587215762901
345.3853472882969,133.6276565885706,32.705526762603235,32.705526762603235,277.7547994131956
344.75737392959087,133.93050291514612,32.30459295738075,32.30459295738074,277.2911906127826
344.1294005708849,133.65325596670155,32.52907737302409,32.52907737302409,278.32322929263756
343.5014272121789,133.7939921768665,32.610427242049084,32.610427242049084,278.20149224491064
342.8734538534729,133.39377445178297,32.453470757356854,32.453470757356854,278.2383990628562
342.2454804947669,133.2786885068487,32.756909217161414,32.756909217161414,278.0200661277778
341.6175071360609,133.03744000541963,32.29035122393171,32.2903512239317,277.6556152356841
340.98953377735495,133.32744325537234,32.4233946782942,32.4233946782942,278.5628757617918
340.36156041864893,133.01940700694158,32.59029009910842,32.590290099108415,278.50571122639
339.7335870599429,133.92397636220628,32.39534150054054,32.39534150054054,277.9197734883321
339.10561370123696,134.21469113016758,32.57875083757562,32.57875083757562,278.20145859980914
338.47764034253095,132.94940417669383,32.458640950337255,32.458640950337255,278.34975756795546
337.84966698382493,132.6866789505133,32.230357968955836,32.230357968955836,279.0504636974937
337.221693625119,133.1388500906295,32.45783218743528,32.457832187435294,279.67363034408277
336.59372026641296,134.21737329832385,32.26123856395291,32.261238563952915,278.70373248933276
335.96574690770694,132.9588251489387,32.88385050949373,32.88385050949373,279.8925821164521
335.337773549001,133.22577007462212,32.743032720394694,32.743032720394694,279.3110678824224
334.70980019029497,133.3117369116133,32.66415362366506,32.66415362366506,279.52191081615257
334.081826831589,133.15332829301957,32.50543166078685,32.505431660786854,279.524777686335
333.453853472883,133.21275752567325,32.3345314136712,32.3345314136712,280.040045097064
332.825880114177,132.81540155200685,32.57332195199334,32.57332195199334,280.21591954862464
332.197906755471,133.14627183265324,32.353966410069226,32.35396641006922,280.66275823056156
331.569933396765,132.75238195296205,32.4732264105653,32.4732264105653,281.143776567811
330.941960038059,133.3082540022757,32.65435130146434,32.654351301464345,280.7694160118239
330.31398667935304,132.85765670709196,32.47651866529288,32.47651866529287,280.6013936356774
329.686013320647,133.50214091554201,32.988914677607845,32.98891467760784,281.15363152187535
329.058039961941,133.5060110115487,32.61940655698765,32.61940655698766,280.503613488722
328.43006660323505,133.49037194640758,32.222363231026975,32.222363231026975,280.624121846569
327.80209324452903,133.13173321909966,32.729219076004505,32.7292190760045,281.35859299347004
327.1741198858231,133.9946403905256,32.42018308060598,32.42018308060598,281.5111462704751
326.54614652711706,133.33159774272337,32.59728870860027,32.59728870860027,281.75900662514624
325.91817316841104,133.601585124651,32.27892904600664,32.278929046006645,281.30144238860987
325.2901998097051,136.62151909313826,32.08284442762292,32.08284442762292,282.86940943239
324.66222645099907,136.24511239171477,32.16134069351574,32.16134069351574,282.9478533665137
324.03425309229306,135.51421052399115,32.697911213796154,32.697911213796154,283.1635620983123
323.4062797335871,136.32806662311486,32.093161512498305,32.093161512498305,283.4430445817748
322.7783063748811,136.38183793076416,32.436237749966665,32.436237749966665,283.10086917418624
322.15033301617507,135.88856043748285,32.320852054047336,32.320852054047336,283.44658764760135
321.5223596574691,136.9141221976359,31.69336792448446,31.69336792448446,283.4987938605498
320.8943862987631,136.58972287835695,32.26587959339582,32.26587959339582,283.6984760133864
320.26641294005714,136.04713869883517,32.5288928159984,32.5288928159984,283.67364042241803
319.6384395813511,137.2251670483112,32.266835732904056,32.266835732904056,284.52131509904456
319.0104662226451,136.35685866191022,31.99770564537768,31.997705645377685,284.2564820333772
318.38249286393915,135.84435003946396,32.00154379345507,32.00154379345507,283.8621372919646
317.75451950523313,137.2416035741,32.03701298102845,32.03701298102845,284.66207527143416
317.1265461465271,136.86754468663153,31.82806843423898,31.828068434238975,284.32537238525606
316.49857278782116,139.22889053261736,31.153236481098606,31.153236481098606,283.5067337769603
315.87059942911515,136.81237479597297,31.77950606026142,31.77950606026142,285.1913079840505
315.2426260704092,136.53060912464193,31.830204244940152,31.83020424494014,285.1251668682623
314.6146527117032,136.84745786834284,31.884303632844663,31.88430363284467,284.58663716544163
313.98667935299716,137.3562459853244,31.95493535314242,31.95493535314242,285.27727084659585
313.3587059942912,137.39861250637256,32.06289385028816,32.06289385028816,285.44146276288285
312.7307326355852,136.9223612779023,31.962514197342404,31.962514197342408,285.5293365742754
312.10275927687917,137.06447409859234,31.605156176790363,31.605156176790356,285.58438817573915
311.4747859181732,136.9809304365503,31.760672837419385,31.760672837419385,286.1465866003888
310.8468125594672,137.2911034490026,31.87225251568453,31.872252515684536,285.3091697160219
310.2188392007612,134.12903672506837,32.14748890860683,32.14748890860683,285.15096558428115
309.5908658420552,132.87838625364694,32.78309923426186,32.783099234261854,284.74765432454205
308.9628924833492,132.67101175961625,31.822521101635484,31.822521101635484,285.8717800120773
308.33491912464325,132.70683861187297,31.85339398497111,31.85339398497111,285.5868271426583
307.70694576593723,133.01657115688982,32.12320048807502,32.12320048807502,285.50753726041876
307.0789724072312,133.0236059104144,32.22199592052435,32.22199592052435,285.50557119407074
306.45099904852526,134.07560516770738,32.10627101178298,32.10627101178298,286.2695849992774
305.82302568981925,133.442256055068,32.18930465870349,32.18930465870349,286.1723087395521
305.19505233111323,133.46070735966444,32.14357395497338,32.14357395497338,285.8812447234941
304.5670789724073,134.17291367194218,32.31543816869539,32.31543816869539,285.88885034677503
303.93910561370126,134.21206644017767,32.10529471655112,32.10529471655112,286.6405703909015
303.31113225499524,133.76560470259037,32.03871265127988,32.03871265127988,286.05595685826427
302.6831588962893,133.1881378899367,31.8903445555244,31.8903445555244,287.5543192517774
302.05518553758327,133.94131039898556,32.18855875807022,32.18855875807022,286.6262888664607
301.4272121788773,132.87257012642203,32.27870018312461,32.27870018312461,287.01113168097436
300.7992388201713,133.45160859580852,31.872587722263873,31.872587722263884,287.67916005124283
300.1712654614653,133.39429567422445,32.02444571302156,32.02444571302156,286.97271187830967
299.5432921027593,133.6953456054518,32.1125449865722,32.1125449865722,287.21682308353104
298.9153187440533,133.39678082082173,31.990758631327758,31.990758631327758,287.51867161752114
298.2873453853473,134.19364874910218,31.868387293703048,31.86838729370305,287.1403846321282
297.65937202664134,135.88015043374176,31.592897349934404,31.592897349934404,285.95217251053464
297.0313986679353,136.40076520933204,31.696626736646934,31.696626736646927,289.0036661526188
296.4034253092293,137.14993904007113,31.673200016515167,31.673200016515167,288.00611512091245
295.77545195052335,137.86765553930974,31.590849937600304,31.5908499376003,288.14652629295165
295.14747859181733,139.2264776545778,33.45058240159341,33.450582401593415,289.2187499700891
294.5195052331114,138.2239913828551,32.073525940080835,32.073525940080835,288.7887019370806
293.89153187440536,136.74122364926404,32.197425473341525,32.197425473341525,289.2087717876477
293.26355851569934,137.73703502888722,30.894589638987046,30.894589638987046,287.4561143815894
292.6355851569934,137.38128206236038,31.403210689629333,31.403210689629333,288.7979605682018
292.00761179828737,137.59164030703008,31.283365797252138,31.283365797252134,288.71420080957273
291.37963843958136,137.50424702837526,30.95160681943947,30.95160681943947,289.71844410403725
290.7516650808754,136.70898463033902,31.23088685457755,31.230886854577548,289.0014260480402
290.1236917221694,137.4333725271219,31.67276677877931,31.67276677877931,289.93513056041206
289.49571836346337,137.19401943290367,31.42798228019182,31.427982280191827,288.6996112347786
288.8677450047574,137.1815746257751,31.063332873519833,31.063332873519833,290.0813901005506
288.2397716460514,137.2021344280276,31.153693924221194,31.153693924221194,288.7320084199159
287.61179828734544,133.59425137212423,31.549533262851405,31.549533262851405,288.32329685635017
286.9838249286394,133.8914136308535,31.57526358878412,31.57526358878412,288.5144662903182
286.3558515699334,134.0816609218385,31.586054507435854,31.586054507435854,288.65104429944347
285.72787821122745,135.39072469099773,30.99121394442045,30.991213944420448,288.350067074512
285.09990485252143,135.1367892156402,31.634260224456682,31.634260224456682,288.2059333040252
284.4719314938154,134.5453165586034,31.658379700433706,31.65837970043371,288.17486228042185
283.84395813510946,134.99952467378193,31.219995366661962,31.219995366661955,288.745238795332
283.21598477640345,134.71929772376555,31.05589724295892,31.05589724295892,289.1034059828362
282.5880114176975,134.43083916936683,31.234272560444285,31.234272560444285,288.85028867937734
281.9600380589915,134.3336417516785,31.094025961721375,31.094025961721375,288.3446398790392
281.33206470028546,135.62815038072958,28.278252103444604,28.278252103444604,292.00802397567435
280.7040913415795,134.86559039695433,31.40994580915149,31.40994580915148,288.20400407215357
280.0761179828735,138.16131882737537,30.7398082133768,30.7398082133768,288.8380658264677
279.44814462416747,137.97901082407603,31.14591044758674,31.14591044758674,289.096392396344
278.8201712654615,138.9784620907146,31.018304296006324,31.018304296006328,289.6154909088027
278.1921979067555,138.9514604400117,30.82383065265381,30.82383065265381,289.5707633314739
277.5642245480495,138.5177952858814,31.167872755333747,31.167872755333747,289.95306704277425
276.9362511893435,140.1258328451786,30.7427854130216,30.7427854130216,289.24555665129753
276.3082778306375,138.3543045029716,30.955745476658475,30.955745476658475,289.98573503506515
275.68030447193155,138.7774947009674,31.209333577972377,31.209333577972377,289.7286605954026
275.05233111322553,139.12577381093155,30.23108277598427,30.23108277598427,288.9430403802782
274.4243577545195,140.83254341484013,30.37923990201721,30.37923990201721,289.2298819564338
273.79638439581356,139.10178341267877,30.832688021695375,30.832688021695375,289.6530284331276
273.16841103710755,140.23484580956392,30.332892385591162,30.332892385591165,289.0295902684333
272.54043767840153,134.93614548609747,31.06700448554092,31.06700448554092,289.2479053883107
271.9124643196956,143.5439498162323,28.414972567125897,28.414972567125893,286.3946187251361
271.28449096098956,135.71812899648216,30.666865374446242,30.666865374446242,288.3917609470912
270.65651760228354,138.64115995279178,29.79656135617618,29.796561356176184,288.997351264092
270.0285442435776,137.04998158872476,29.788554249285482,29.788554249285475,288.7186507999522
269.40057088487157,138.17718864924026,30.511885428401353,30.511885428401353,288.997401353411
268.7725975261656,136.2961890681907,30.773058132795562,30.77305813279556,288.70077502693823
268.1446241674596,137.39510864399838,30.783717445939335,30.783717445939335,288.263549328388
267.5166508087536,137.27647993611498,30.70500838755783,30.70500838755783,288.220438093337
266.8886774500476,137.83240216728,30.757116148916015,30.757116148916015,288.90804125509294
266.2607040913416,137.23431484403525,30.540673045922176,30.540673045922176,288.98714463997067
265.6327307326356,138.06994187027408,30.44847171622012,30.448471716220123,287.68159777175833
265.00475737392964,142.19898520858504,29.985909629654273,29.985909629654273,289.2074590471387
264.3767840152236,142.03635110668134,29.67777879618415,29.677778796184143,289.02069250100624
263.7488106565176,141.6862173785653,29.836033122359886,29.83603312235988,289.2716471158103
263.12083729781165,141.22313933988707,29.852035281334533,29.852035281334533,290.5149522412671
262.49286393910563,146.4405846808385,30.748686243735712,30.748686243735712,287.3986451021929
261.8648905803997,141.54109149428,30.12721269642984,30.12721269642984,289.60290763072226
261.23691722169366,152.11293362147524,28.22439206436469,28.224392064364693,289.687203817284
260.60894386298764,151.8469364045567,27.771915442299353,27.77191544229935,290.9432944576817
259.9809705042817,152.54706493301322,27.830349645244752,27.830349645244755,292.4624280230908
259.35299714557567,150.81219443494675,28.683050215478065,28.683050215478065,291.24142580521465
258.72502378686966,151.05871656152235,28.903468746361295,28.903468746361295,291.5973194951492
258.0970504281637,151.94101893318333,28.940537350504535,28.94053735050453,291.2040203257071
257.4690770694577,151.96017951970347,27.98747700674553,27.98747700674553,290.2700322092092
256.84110371075167,151.48844889444877,28.328261343833237,28.328261343833233,291.0293874638696
256.2131303520457,157.61469383227805,28.562336205842517,28.562336205842517,289.5072409898755
255.5851569933397,143.33302454990334,28.21648641412807,28.216486414128063,289.38111872731673
254.95718363463374,143.27023464875447,29.51612915282301,29.516129152823005,289.32126643700434
254.32921027592772,145.66386206044433,28.527246577232464,28.527246577232475,288.8035145080011
253.7012369172217,140.40976639704485,29.02615968184161,29.026159681841612,288.96661067509575
253.07326355851575,141.125661132168,28.952028695584165,28.952028695584172,287.81636502715503
252.44529019980973,140.66985896624072,29.83375777320975,29.83375777320975,287.13768101098793
251.81731684110372,140.6480570013936,29.607323245931234,29.607323245931234,287.89219372555016
251.18934348239776,141.27983300752825,29.776524679223733,29.776524679223737,287.7222100847079
250.56137012369174,141.73957346279732,29.45447677816288,29.45447677816288,287.8835259928355
249.93339676498573,139.7992047192238,29.49871742248829,29.498717422488294,288.68926944465284
249.30542340627977,140.35749654706487,29.407554220160094,29.407554220160094,288.43138926499233
248.67745004757376,144.18217439270268,29.948728079258153,29.94872807925815,286.9868706907979
248.0494766888678,141.2466748149207,29.24545212539159,29.24545212539159,287.57236776954903
247.42150333016178,140.82201566356525,29.25238027195099,29.25238027195099,288.3024306027584
246.79352997145577,141.23583014276483,28.61841636143174,28.61841636143174,287.8498489122633
246.1655566127498,141.23879020628357,29.262916771995098,29.262916771995098,287.3120046560081
245.5375832540438,141.3802961771542,29.064057966072465,29.064057966072475,287.245760145831
244.90960989533778,143.2133798953651,29.253837468273755,29.253837468273755,287.4273608753539
244.28163653663182,138.9852304614865,29.298204733482244,29.298204733482226,286.10138616096486
243.6536631779258,139.2285444393373,29.48713518475331,29.487135184753306,287.28942095451464
243.02568981921985,139.73628113112585,29.6692978276133,29.6692978276133,286.95161654764087
242.39771646051383,136.55215324070554,29.795971025837858,29.79597102583786,286.2909728121066
241.76974310180782,140.19793968768323,31.636086319246402,31.636086319246406,285.89776894864445
241.14176974310186,136.4368874142695,29.97831265840082,29.978312658400824,285.78638772348336
240.51379638439585,139.53164675970416,28.97076578912889,28.970765789128887,287.3003698898983
239.88582302568983,142.59658623033926,28.318829248079325,28.318829248079336,285.89091744702426
239.25784966698387,140.36667498221706,28.697191893926934,28.697191893926938,287.0871179330704
238.62987630827786,141.26887089531584,28.52992005037127,28.529920050371278,286.7236045905517
238.00190294957184,142.1215694660322,29.051935857266745,29.051935857266752,285.9465381508211
237.37392959086588,140.99162962194725,28.29683691276108,28.29683691276108,287.2769801365604
236.74595623215987,142.11181538565017,28.22231327951441,28.22231327951441,287.28426944658594
236.1179828734539,142.6569506201029,28.905272247879445,28.905272247879452,286.7425298227296
235.4900095147479,142.87380431524966,28.67161931689056,28.671619316890556,285.5561480860189
234.86203615604188,142.22904279567152,29.045136347709246,29.04513634770925,286.0144200402979
234.23406279733592,142.47062250266058,28.348868633917117,28.348868633917117,284.5243643018275
233.6060894386299,142.57039943703367,28.469577275857596,28.469577275857596,286.10226833494295
232.9781160799239,143.9326557463383,27.786478266844853,27.786478266844853,286.1114678663941
232.35014272121794,143.43906722824744,28.063969893478966,28.06396989347897,286.0391179390308
231.72216936251192,142.23440405059566,28.33658381529037,28.33658381529038,286.15433736520487
231.0941960038059,143.16553536426434,28.465783117889146,28.465783117889142,285.5901301076984
230.46622264509995,142.53015711167464,28.395471215972893,28.395471215972893,286.17315518840024
229.83824928639393,144.10682498108176,28.220272962647783,28.220272962647783,285.4974490349343
229.21027592768797,144.12185485264828,27.956236908025996,27.956236908026,285.51906626272836
228.58230256898196,143.36565271376313,27.49062895701246,27.490628957012465,287.0432132061243
227.95432921027594,143.9787285311195,26.75797803836634,26.75797803836634,286.7307977984286
227.32635585156999,145.11055240441848,28.212379794384255,28.212379794384262,286.5158147186507
226.69838249286397,144.16848984178807,27.88247290462369,27.88247290462369,286.37573370102155
226.07040913415796,143.9921757492669,28.255542642242624,28.255542642242624,285.71078238854767
225.442435775452,151.3028164932923,26.291071232855764,26.29107123285576,285.10412739126957
224.81446241674598,146.53340946359504,27.762700836136762,27.762700836136762,286.50763627274836
224.18648905803997,147.39916176165198,27.50364750253012,27.50364750253012,287.1417361665897
223.558515699334,147.2434898852472,27.011756100158916,27.011756100158912,287.0275775762844
222.930542340628,149.088270866319,26.621992513626097,26.621992513626097,286.31965136996223
222.30256898192204,148.56930140051006,27.4672555991108,27.467255599110796,286.54771535174615
221.67459562321602,147.1523381171923,27.584146687582503,27.584146687582503,286.6817332247564
221.04662226451,147.7821686800029,27.431874663914275,27.431874663914286,286.1927399258371
220.41864890580405,147.54535059859526,27.38748456436324,27.38748456436324,286.5423567344272
219.79067554709803,147.59916146058154,27.47111092618709,27.47111092618709,286.724911468289
219.16270218839202,148.87708068239576,27.4255511549602,27.425551154960207,285.44172284619947
218.53472882968606,151.41470720400213,24.671381354260454,24.671381354260454,286.8482451496442
217.90675547098004,145.13277875830113,27.54631047886135,27.54631047886135,285.0014910362521
217.27878211227403,146.46524691773232,27.152924570087258,27.15292457008726,284.6737691545328
216.65080875356807,145.39479398629794,27.69281133403863,27.692811334038634,285.8067400236861
216.02283539486206,146.39680088598493,27.339109412874947,27.339109412874947,285.59817208079227
215.3948620361561,146.9355621574006,26.379068659865627,26.379068659865627,286.4833632710025
214.76688867745008,146.5866950377507,27.397648078884615,27.39764807888461,285.2827382834955
214.13891531874407,147.81079441025517,27.724300274589286,27.724300274589286,285.96462069613443
213.5109419600381,145.80286106384239,27.30614512864028,27.30614512864028,285.43417912008334
212.8829686013321,147.1314984467654,26.342793515777892,26.342793515777895,285.66180638078697
212.25499524262608,148.19058894401826,26.746396435059236,26.746396435059232,285.08574309964405
211.62702188392012,147.38183184942602,27.085296893062758,27.085296893062758,285.45669050639043
210.9990485252141,147.9023459909201,27.37751877635333,27.37751877635333,285.24533888817604
210.37107516650815,147.12912453843614,26.88772370192976,26.88772370192976,285.5779343817016
209.74310180780213,148.710522995847,24.712370325165082,24.71237032516508,285.57772145934587
209.11512844909612,147.66283912548514,27.104971152813242,27.104971152813242,285.2505011529401
208.48715509039016,149.48379952344166,26.50032176658155,26.500321766581546,285.1888624182988
207.85918173168415,149.85602016387816,27.672100414468773,27.672100414468783,285.4747812381757
207.23120837297813,148.4151281127392,26.93861072150065,26.93861072150065,284.92918412676556
206.60323501427217,152.22315848462682,26.169762527525908,26.169762527525908,286.14102452221374
205.97526165556616,154.00970598884066,26.23429283119965,26.23429283119965,285.83964766827324
205.34728829686014,151.97460518397278,26.58139612633768,26.58139612633768,286.4528108907902
204.71931493815418,151.6057730762083,26.38215755995866,26.38215755995866,286.06266992691405
204.09134157944817,151.24655977495507,26.444320893491067,26.444320893491067,285.7430234458701
203.4633682207422,151.44625725448628,26.622707920349903,26.622707920349903,285.2858706971584
202.8353948620362,151.99576760753897,25.959833304895394,25.959833304895398,285.52361233586663
202.20742150333018,152.81685410817076,25.688651569555848,25.688651569555848,285.5381977427937
201.57944814462422,153.48611757583396,25.402397171843127,25.402397171843123,285.3735315886416
200.9514747859182,153.29737758179607,25.707070049579745,25.707070049579745,286.27116049267187
200.3235014272122,154.05228560160677,26.226803894911043,26.226803894911033,285.83864837836614
199.69552806850623,153.35834678827558,26.307436401519947,26.307436401519944,285.697189884711
199.06755470980022,154.64978162223346,24.60000694117285,24.600006941172847,286.73832132441726
198.4395813510942,153.9401807075141,25.635036941146478,25.635036941146478,285.90238313887943
197.81160799238825,156.22452134390767,24.437490559892517,24.43749055989253,284.7095218759222
197.18363463368223,154.1004187443573,25.966376081187505,25.966376081187505,286.12331274365425
196.55566127497627,154.7659776541031,25.941994231635714,25.941994231635718,285.55963461792516
195.92768791627026,155.24643856754625,24.68228820393919,24.682288203939198,287.00780487398345
195.29971455756424,155.39406134303798,25.80023885836306,25.800238858363056,285.52998705234916
194.67174119885829,157.3617846621271,25.419388495763062,25.41938849576305,285.04126206514957
194.04376784015227,156.1227803620788,25.557373346976863,25.557373346976863,285.3646329995764
193.41579448144626,159.56974070476198,25.1227440966248,25.1227440966248,283.83938928618943
192.7878211227403,157.32262660088452,25.50099611579883,25.50099611579883,285.122613864957
192.15984776403428,157.91120973758464,25.729062033242112,25.729062033242116,284.87145586797163
191.53187440532827,159.94109667345293,25.38557028970827,25.385570289708273,286.06879128501197
190.9039010466223,162.73321258497768,25.613943797744067,25.613943797744067,285.35407233107344
190.2759276879163,161.2883942469417,25.087372096304655,25.087372096304655,286.0833962425976
189.64795432921034,161.36470695881567,24.925342497385376,24.92534249738538,285.710409318373
189.01998097050432,161.13211329783405,23.634259074144644,23.634259074144644,287.09044173154643
188.3920076117983,166.25024011232313,24.18028047086062,24.18028047086062,285.2064430226332
187.76403425309235,160.68391851678106,25.272703492237646,25.272703492237643,285.9790856942515
187.13606089438633,162.2013082532307,23.34648494154211,23.34648494154211,286.93902412397
186.50808753568032,162.77905741336642,24.45898277134223,24.45898277134223,286.17625174348063
185.88011417697436,163.35953253753235,24.489722522530293,24.4897225225303,286.5368223794378
185.25214081826834,164.4669552928455,23.96840288350647,23.96840288350647,285.8258046578267
184.62416745956233,165.18256609238713,24.4595194503668,24.45951945036681,286.03760822846056
183.99619410085637,165.950754915781,24.060902482571333,24.06090248257134,286.26716579007893
183.36822074215036,168.17713439272003,24.55117975677673,24.551179756776726,285.96588580971184
182.7402473834444,165.75593895887485,24.176558440229257,24.176558440229268,286.684998642288
182.11227402473838,164.39659418118526,23.86739407711191,23.867394077111918,285.52724587554076
181.48430066603237,166.4957850843106,21.569195243524113,21.56919524352411,286.59790153876764
180.8563273073264,167.21771091899438,22.235286179809588,22.235286179809595,284.4469708728337
180.2283539486204,170.06154722630959,23.681581809304753,23.681581809304753,283.6953620203583
179.60038058991438,164.32546282297787,24.02194321419787,24.02194321419786,284.36575133161443
178.97240723120842,165.04883609820962,24.06692278590397,24.06692278590397,285.33644188360273
178.3444338725024,164.9425243755403,23.817434145385263,23.81743414538526,284.7238434473092
177.7164605137964,165.5568023939113,23.998135880105206,23.998135880105206,284.3037628880039
177.08848715509043,166.08607690525497,23.468287212750127,23.46828721275013,284.8080798827744
176.46051379638442,165.16534717724636,24.006277001811227,24.006277001811224,283.5877360042148
175.83254043767846,165.81047003724015,23.85362099876403,23.853620998764036,283.84161657670245
175.20456707897245,166.4732535578975,23.65720034327879,23.657200343278795,283.71264830006686
174.57659372026643,168.4246281989718,23.065848377327473,23.065848377327466,283.5956858955921
173.94862036156047,166.84177575509887,22.97765045997366,22.97765045997365,283.9219712923973
173.32064700285446,169.02382549682417,21.637636240744165,21.63763624074417,284.16529064603657
172.69267364414844,167.4028960561211,23.230011121309023,23.230011121309023,284.7762176417376
172.06470028544248,169.1503550851559,22.760124761968797,22.760124761968793,283.2313912553323
171.43672692673647,168.34418103932833,23.158674484702924,23.158674484702924,283.47359461919626
170.8087535680305,168.57259316807153,23.194819261134903,23.194819261134906,283.3361117453589
170.1807802093245,169.53029381876996,23.62490777091446,23.62490777091446,283.4352841406098
169.55280685061848,169.91075829053256,22.780822384346706,22.78082238434671,282.8355637862041
168.92483349191252,168.75878501200327,22.864907263285392,22.864907263285385,282.4702608545624
168.2968601332065,171.11683067176162,21.967248664087666,21.967248664087666,282.5425401097054
167.6688867745005,171.41598658368252,23.072949047514822,23.07294904751482,282.3854327123176
167.04091341579453,171.83804994311316,21.257709153010463,21.257709153010467,283.7718730294463
166.41294005708852,173.05852130778564,22.032377876359078,22.032377876359078,282.96912869615693
165.7849666983825,174.32470246754593,20.79914939759234,20.799149397592334,282.75702983040617
165.15699333967655,172.67574413321387,21.95908774370395,21.95908774370395,282.3506068149542
164.52901998097053,174.16812510144487,20.859325214308612,20.85932521430861,283.5010274993056
163.90104662226457,172.6331554407014,21.585440749396327,21.58544074939633,282.0582208227254
163.27307326355856,172.90470588129068,21.73943399080444,21.739433990804443,282.57863021526873
162.64509990485254,175.0004927740307,20.63602851629586,20.63602851629586,282.99786828265184
162.01712654614659,175.69615428994484,20.69084005886276,20.69084005886276,282.9462608815095
161.38915318744057,175.45473203642527,21.655974474381228,21.655974474381228,281.7711200799983
160.76117982873456,175.6369744006871,21.8659632052331,21.8659632052331,282.1847450631181
160.1332064700286,176.04499250105835,21.1032972170152,21.1032972170152,281.7565684078149
159.50523311132258,176.30065069830903,21.222597326061102,21.222597326061106,282.54805723340047
158.87725975261657,176.19485632404573,21.209823148670274,21.209823148670274,282.6189843990855
158.2492863939106,177.21118713323284,21.80885772544965,21.80885772544965,282.8510443470241
157.6213130352046,178.04582903657132,21.241345001902534,21.24134500190254,281.7999466152459
156.99333967649864,177.65732225287303,20.8382071732857,20.838207173285706,281.4032443590571
156.36536631779262,177.79497840568808,20.814848847676263,20.81484884767627,281.1450333266197
155.7373929590866,178.58128545093203,20.549755053176728,20.549755053176725,280.3907142604938
155.10941960038065,180.15531215797296,21.12667279323799,21.12667279323799,280.8467397592336
154.48144624167463,179.0252171088509,20.931045660265106,20.931045660265106,280.35819223852843
153.85347288296862,179.48768081207413,20.26693655704803,20.26693655704803,280.69920087291194
153.22549952426266,179.11838918349792,20.777915886764525,20.777915886764525,279.7327684191847
152.59752616555664,180.78688183518645,20.261892457338522,20.261892457338515,280.8500823764122
151.96955280685063,178.670068487928,20.584060515352757,20.584060515352753,279.23351202646995
151.34157944814467,179.10491716648465,20.39737413326158,20.39737413326158,279.632232046234
150.71360608943866,180.32095904236596,20.567817966378417,20.567817966378414,280.01201575147275
150.0856327307327,179.3039269633666,20.19673398573484,20.196733985734845,280.1034261324207
149.45765937202668,179.54974354635172,19.79008416196123,19.79008416196123,279.13705837723995
148.82968601332067,180.76732511292096,20.21118376942819,20.21118376942818,279.40040552447056
148.2017126546147,180.60824856080913,19.859655569458095,19.859655569458095,278.60751573279987
147.5737392959087,181.7599219373963,19.385834695343355,19.38583469534335,279.48535307704975
146.94576593720274,182.6202310809342,19.839501496840317,19.83950149684031,278.67185167869843
146.31779257849666,183.8030989562111,19.48368142642158,19.48368142642158,278.4548117057197
145.6898192197907,184.685030265341,18.835991239072918,18.835991239072918,279.20702501264736
145.06184586108475,186.48249905461427,18.227665140486444,18.227665140486444,279.18390772150553
144.43387250237868,188.57327310998107,18.239824682097876,18.239824682097872,277.20319354182686
143.80589914367272,187.75308115466513,20.409776913707205,20.409776913707205,277.7785092351345
143.17792578496676,186.8080212247332,19.07914937510851,19.07914937510851,277.9001558883022
142.5499524262607,187.3312363433521,18.53111215645308,18.531112156453077,278.2652364802935
141.92197906755473,187.0833051682168,18.682822781072446,18.682822781072446,278.4304191968267
141.29400570884877,187.57137301198603,18.531132120867532,18.531132120867532,278.4975254177119
140.6660323501428,186.40380166320247,18.674351995641466,18.674351995641466,277.843212066441
140.03805899143674,187.9001628811511,18.35057940323885,18.350579403238854,277.1228986019109
139.41008563273078,187.90197480256572,18.78946412705258,18.789464127052575,277.63330379022284
138.78211227402483,188.7731722071735,18.057584216295933,18.05758421629594,277.34547124814094
138.15413891531875,189.12869720531086,18.05325503370225,18.05325503370225,277.0975607530651
137.5261655566128,189.25266570281212,18.01450558778475,18.014505587784747,277.259935393619
136.89819219790684,193.50316131009,18.343907228863845,18.34390722886385,277.2026374979988
136.27021883920077,193.67804060152352,17.42889198512629,17.428891985126292,277.2800845541785
135.6422454804948,192.63623457350954,18.575253654562687,18.575253654562687,277.68772415200425
135.01427212178885,192.68137389999734,17.734395998745835,17.73439599874584,277.77893926969483
134.38629876308278,192.60272240831475,17.810439473632933,17.810439473632933,277.4597767982604
133.75832540437682,195.32569189154222,16.784820360229006,16.78482036022901,276.0190316122966
133.13035204567086,193.52741338051436,17.737150841114065,17.73715084111407,276.11583213766437
132.5023786869648,193.90952123826335,17.50713400178747,17.50713400178747,276.09001804380927
131.87440532825883,193.84455308953602,18.065227074598113,18.065227074598116,276.0854988129627
131.24643196955287,194.07772332558554,17.342213528260487,17.342213528260487,275.97033226284645
130.6184586108468,198.06695638060995,17.011841393322445,17.011841393322445,274.9464477998775
129.99048525214084,194.95025490083222,17.159435725604443,17.159435725604443,275.96650348914574
129.36251189343488,198.48939676894875,15.564121966780597,15.564121966780597,276.1236646007274
128.7345385347288,197.44048805114687,16.927295112068013,16.927295112068013,276.43931616776473
128.10656517602285,198.51820751547842,16.725584991256607,16.725584991256603,276.41516635728857
127.4785918173169,200.07770042517745,16.504459846166228,16.504459846166228,276.33743417577097
126.85061845861094,199.9830792894113,16.26819720657724,16.26819720657724,276.6883288931892
126.22264509990487,203.95417542861261,16.98645215398716,16.98645215398716,275.60440469609676
125.59467174119891,201.25487564849146,16.391883258832642,16.391883258832635,275.98308513568116
124.96669838249295,202.10060819746823,15.61282465412613,15.61282465412613,276.24531975543374
124.33872502378688,202.23828645057407,15.924452149077162,15.924452149077162,275.6998942138738
123.71075166508092,204.3379473067737,15.640687448638158,15.640687448638156,276.5912168041025
123.08277830637496,207.7380999235134,14.769195525315435,14.769195525315435,275.13368465360406
122.45480494766889,206.67169845440597,15.169707591553868,15.169707591553864,276.70655518462365
121.82683158896293,206.90624057156543,15.040418028258852,15.040418028258848,275.98845604721896
121.19885823025697,206.6470602899306,15.129717644465135,15.129717644465131,276.2098186151698
120.5708848715509,208.1117201282963,14.360405656621397,14.360405656621397,276.5647870234661
119.94291151284494,207.06858048778884,15.091730920230091,15.091730920230088,275.57206881990885
119.31493815413899,207.26618284242574,15.38219246059657,15.38219246059657,275.8440557225941
118.68696479543291,208.716859038466,15.04449564511947,15.044495645119472,276.00723201072236
118.05899143672696,209.1462845732916,15.265370911084585,15.265370911084581,275.4382472648935
117.431018078021,210.04241314895228,14.591154520521563,14.591154520521563,276.1904585210032
116.80304471931493,209.46267460830498,14.761910986771642,14.761910986771639,276.1383012134499
116.17507136060897,210.40235351846792,14.66970090080251,14.66970090080251,275.1240161618034
115.54709800190301,210.23917594761974,14.36412052087362,14.364120520873623,275.206863483052
114.91912464319705,211.42076004774708,14.688922193734738,14.688922193734738,275.3839011823325
114.29115128449098,211.6947677067437,14.511016064100913,14.511016064100913,275.2527628696638
113.66317792578502,211.938897971785,14.372984440874205,14.372984440874209,276.0733068126451
113.03520456707906,212.78366365608397,14.160201772222514,14.160201772222514,276.12695144472445
112.40723120837299,213.71565153196042,13.618002493376252,13.618002493376252,274.6134003812179
111.77925784966703,214.02059281571186,13.997826063104203,13.997826063104199,274.845633346957
111.15128449096107,213.90808138907124,13.835033230059985,13.835033230059983,275.0346767112372
110.523311132255,213.68913542733225,13.665305870433105,13.665305870433107,274.835123753054
109.89533777354904,214.7281821659973,13.873194559413408,13.873194559413408,274.3932429269856
109.26736441484309,214.80963531299608,13.802109548152679,13.802109548152682,274.3231118625103
108.63939105613701,215.52071523815178,13.46704683842409,13.467046838424093,274.66310928893995
108.01141769743106,216.05265472536792,13.337672666352073,13.337672666352077,273.5751058948399
107.3834443387251,216.62214044534028,13.237092685386076,13.237092685386072,274.45148307429827
106.75547098001903,216.86075820196135,13.329574746536611,13.329574746536611,273.82345822878625
106.12749762131307,217.26977369975882,13.01405733688177,13.014057336881766,273.80402547270955
105.49952426260711,218.08487584670016,13.050959509901768,13.050959509901775,273.9953770416562
104.87155090390104,217.74365161272794,13.365987566788593,13.36598756678859,273.68865473273394
104.24357754519508,218.3710957689531,12.612769840116668,12.612769840116664,273.54770472721276
103.61560418648912,219.66733032356143,12.225488126139355,12.225488126139355,273.3595013435562
102.98763082778305,219.5172771774528,12.990213605285424,12.990213605285426,272.8634871462098
102.35965746907709,219.17829861848185,12.873249662346154,12.873249662346156,273.0655095658202
101.73168411037113,219.7007011147837,12.998712659000773,12.998712659000775,273.2009410123723
101.10371075166518,220.49470745816072,12.642934027415734,12.642934027415734,272.69744471304466
100.4757373929591,220.70940174090228,12.612053522669461,12.612053522669461,272.24221024066753
99.84776403425315,221.75495564713466,12.223627045932707,12.223627045932707,272.54063047752356
99.21979067554719,221.49848809785288,11.877922846424745,11.877922846424742,273.02145360635507
98.59181731684112,222.02980547687966,12.215025392561689,12.215025392561689,272.29070655857146
97.96384395813516,222.74058120191773,12.531114056861727,12.531114056861727,272.71763605027064
97.3358705994292,221.23270094993663,12.560709990170476,12.56070999017048,271.2375753241144
96.70789724072313,221.94267684875572,12.274293859611063,12.274293859611063,271.26310142135833
96.07992388201717,223.13236578887026,12.407055423521353,12.40705542352135,271.0759864327249
95.45195052331121,222.27336938339917,12.034502511950105,12.034502511950105,270.5171009169074
94.82397716460514,223.88871895442415,11.407932354507105,11.407932354507105,270.18210167395995
94.19600380589918,223.881025614364,11.935482470197984,11.935482470197984,270.5061579928119
93.56803044719322,224.2428708117487,11.47961529052366,11.47961529052366,270.240337165554
92.94005708848715,224.64981911941683,11.192412555519606,11.192412555519605,270.06514638995
92.3120837297812,224.6501725758082,11.60321799150208,11.60321799150208,269.63895258814836
91.68411037107523,225.04887537745932,11.75263516334275,11.752635163342747,269.51271858194457
91.05613701236916,225.3588758239426,11.571919932833044,11.571919932833044,269.3967048220476
90.4281636536632,225.85108049853136,11.163507040166438,11.163507040166438,269.5030807985675
89.80019029495725,227.6176984217943,11.379001829015836,11.379001829015838,270.47112989150156
89.17221693625117,228.14049281611798,11.241552798637901,11.241552798637901,270.0519797772598
88.54424357754522,228.3741575248696,10.8333843938166,10.8333843938166,269.9900749828393
87.91627021883926,229.267422264026,11.05378837296571,11.053788372965712,269.7880781316085
87.2882968601333,230.1350885016886,10.726980582815306,10.7269805828153,269.63814230689144
86.66032350142723,231.40806151602095,11.049696331181174,11.049696331181174,269.90035136557816
86.03235014272127,230.56544922833066,10.391949543225937,10.391949543225937,269.59531088127505
85.40437678401531,231.6502355746993,10.209466833723274,10.209466833723274,270.4559394578961
84.77640342530924,232.48168490009783,10.39204173271876,10.392041732718761,269.8628720597971
84.14843006660328,234.01523705401706,10.026099306829597,10.0260993068296,269.90747971205
83.52045670789732,233.9821681645692,10.25613157110907,10.256131571109073,269.3305037938621
82.89248334919125,235.48379029528513,9.819567106747417,9.819567106747417,269.21234868072486
82.2645099904853,234.99964401766633,9.904354183403234,9.904354183403234,270.27297080854436
81.63653663177934,236.70697204244775,9.684144718800033,9.684144718800031,269.03186365529933
81.00856327307326,235.5466650693173,9.9366749069654,9.936674906965399,270.27865884844454
80.3805899143673,235.64983006731018,10.10850003357193,10.10850003357193,269.1957157677474
79.75261655566135,235.69853826722397,9.980673421360803,9.980673421360803,268.70747656876534
79.12464319695528,236.17707846285415,9.741074725275713,9.741074725275709,269.2292980069906
78.49666983824932,236.66135810337332,9.672129427369093,9.672129427369093,268.4836559583406
77.86869647954336,237.83194232781852,9.922428789631619,9.922428789631619,268.3343999534302
77.24072312083729,238.49522472103504,10.016346397039298,10.016346397039298,269.0198805497837
76.61274976213133,238.05091519522455,9.38848451578041,9.38848451578041,269.11249310839656
75.98477640342537,238.23190730128786,9.31818309663091,9.318183096630918,268.16882697192267
75.35680304471941,239.1812391252392,8.716974924214759,8.71697492421476,268.51993017866636
74.72882968601334,238.91777426301238,9.146160078114303,9.146160078114304,268.18564951382115
74.10085632730738,239.54521836970892,9.328831615056638,9.328831615056636,268.74445815472046
73.47288296860143,239.94322850602947,9.097114577064426,9.097114577064428,267.9466008388743
72.84490960989535,240.50581189300894,9.123073707924089,9.123073707924092,267.42545980834916
72.2169362511894,241.20694562593047,8.801673580065424,8.801673580065426,267.5578888129567
71.58896289248344,241.6954772969834,8.807584272485197,8.807584272485197,267.55656074973075
70.96098953377737,242.22018674869759,8.689194557677903,8.689194557677903,268.15276927996194
70.3330161750714,242.81679591485712,8.843536360048407,8.843536360048404,267.8581658098097
69.70504281636545,243.31267290875823,8.801113686652295,8.801113686652297,268.08924999515824
69.07706945765938,244.12051729152785,8.439178018325611,8.439178018325611,267.4487966892561
68.44909609895342,260.1765635196591,5.76528790974575,5.7652879097457514,265.01095306345
67.82112274024746,260.2823643774569,6.163972816384893,6.16397281638489,264.74737414491767
67.19314938154139,261.3462148051369,6.023716486866411,6.023716486866413,265.27305788045635
66.56517602283543,261.0034372778953,5.761608944857618,5.7616089448576195,265.04924916449994
65.93720266412947,261.37330651292075,5.827605144434602,5.827605144434602,264.98754008597234
65.3092293054234,261.80628486496886,5.684378522187438,5.684378522187437,264.91339163934583
64.68125594671744,261.73245620773605,5.5537039285494005,5.553703928549402,264.5190051985226
64.05328258801148,262.6916556769993,5.960029420466199,5.960029420466198,265.3296949786317
63.42530922930541,262.7443452680283,5.716317103255209,5.716317103255209,264.72047637196073
62.797335870599454,263.36258642942363,5.546474492524559,5.546474492524556,264.25369584559894
62.169362511893496,263.9929425597429,5.477127682823012,5.4771276828230135,264.0717403646641
61.54138915318754,264.0055187320115,5.472968219136636,5.472968219136635,264.27443948843046
60.913415794481466,263.70451232922153,5.720479780947291,5.720479780947291,264.20977563637297
60.28544243577551,264.1064123192014,5.253683782563463,5.253683782563465,263.8849913380605
59.65746907706955,264.9612113000053,5.456181229150038,5.456181229150036,263.81553181835926
59.02949571836348,264.9215752354982,5.200175722699187,5.200175722699187,264.20134394217297
58.40152235965752,266.06570550255606,5.01032482253422,5.01032482253422,264.2368330716141
57.77354900095156,265.9973511025164,5.06373734070343,5.06373734070343,264.3054078083456
57.14557564224549,266.30144879654904,4.807663906243854,4.807663906243852,263.91021388429607
56.51760228353953,266.60515262989566,4.7272338337918045,4.727233833791804,264.06405911117537
55.88962892483357,267.04168673752787,5.263103942170405,5.263103942170407,263.59427219562764
55.2616555661275,266.9393405392428,4.921877830964618,4.921877830964617,263.65928038749456
54.63368220742154,266.9903914494996,4.947655285266611,4.9476552852666105,263.53553556565305
54.005708848715585,267.58175368439686,4.888911393484674,4.8889113934846735,263.4598556749974
53.37773549000951,269.02357662689377,4.749475745643004,4.749475745643004,265.04276863781536
52.749762131303555,269.1479398765655,4.524482776548714,4.524482776548714,265.35769546769546
52.1217887725976,269.36896413840003,4.567544485297648,4.567544485297652,265.2314275405894
51.493815413891525,269.65172546163654,4.579312631506435,4.579312631506435,264.3913715719898
50.86584205518557,270.4714130513941,4.579400067644848,4.579400067644848,265.1254827202843
50.23786869647961,270.24780969002944,4.514724829552806,4.514724829552806,265.14899056937816
49.60989533777365,270.88982306580925,4.089664511905238,4.089664511905238,265.3952245023886
48.98192197906758,271.200407230195,4.269517523679486,4.269517523679483,265.33875106288144
48.35394862036162,272.0207824408649,4.519667186612588,4.519667186612588,265.4454335285259
47.72597526165566,272.04340523368114,4.309973734550056,4.309973734550056,265.07667748161424
47.09800190294959,272.13453860683586,4.360172011368863,4.36017201136886,265.11362306390396
46.47002854424363,272.6330390162682,4.437967521774765,4.437967521774769,265.08544170573026
45.842055185537674,272.50645860064685,4.131784557328358,4.13178455732836,265.2877894210742
45.2140818268316,272.87685585830815,4.140068648292292,4.140068648292292,264.86198822517827
44.586108468125644,272.44245271893783,4.058665089414461,4.058665089414461,264.4231885166452
43.958135109419686,272.8011793111151,4.314959400185,4.314959400185002,264.3296832852045
43.330161750713614,272.6366157938271,4.297657246417996,4.297657246417997,263.959291561361
42.702188392007656,273.191390992658,4.038386427435104,4.038386427435106,263.46283993424845
42.0742150333017,271.1567829605615,4.557423983357533,4.557423983357532,260.81889468876545
41.446241674595626,271.9484743649838,4.5015809626690775,4.5015809626690775,260.5417793755224
40.81826831588967,271.70819191129107,4.269461983446689,4.269461983446688,260.5108671615799
40.19029495718371,271.43541842280666,4.147767611224174,4.147767611224174,259.67316952750895
39.56232159847764,271.7653498737722,4.22352320808055,4.2235232080805485,259.86452052462005
38.93434823977168,272.21220607935595,4.11261505330036,4.1126150533003605,259.74475971857026
38.30637488106572,272.38599432799646,4.189239624330351,4.189239624330351,260.2697692779232
37.67840152235965,272.83012883526226,3.920869217929271,3.9208692179292677,260.01029365380487
37.05042816365369,273.9416404839786,3.796575537580657,3.796575537580656,261.0611743237251
36.42245480494773,274.2403564211792,3.7935015950958726,3.793501595095874,261.55870903731943
35.794481446241775,274.50782430625594,3.794457465143061,3.7944574651430596,261.9418139738906
35.1665080875357,275.5081329970985,3.4686742150358874,3.4686742150358887,261.5676391052365
34.538534728829745,275.3174432916423,3.537569237019546,3.5375692370195435,261.5465949963712
33.91056137012379,275.75704509498274,3.747439149498301,3.747439149498303,261.2911666901229
33.282588011417715,275.28003152303137,3.610527724303599,3.610527724303599,262.2137482613747
32.65461465271176,277.33337147446514,3.4677510967883673,3.467751096788366,263.68500043366754
32.0266412940058,277.35444548256226,3.46429538700232,3.46429538700232,263.5902323156056
31.398667935299727,277.54107132679235,3.5172121534594813,3.5172121534594774,263.35174187511996
30.77069457659377,277.67464513017796,3.3315829057268496,3.331582905726849,263.19872523798733
30.14272121788781,277.8740506718593,3.4161758701782095,3.416175870178208,263.5090633402796
29.51474785918174,277.1910310900612,3.538008324332312,3.538008324332312,261.9323171230177
28.88677450047578,277.24607627626045,3.2844545349750263,3.284454534975025,262.4716956640054
28.258801141769823,277.1375667678597,3.6361683762021624,3.6361683762021624,261.7899654768264
27.63082778306375,277.4116811032862,3.3873141773164495,3.387314177316451,262.2810802161136
27.002854424357793,277.14491444834607,3.4136240915020517,3.4136240915020495,262.3208534753403
26.374881065651834,277.526924513995,3.5122242380468625,3.512224238046862,262.038527312551
25.746907706945763,277.67536176969793,3.568725491535015,3.568725491535015,262.3761876955522
25.118934348239804,277.6644957304597,3.509539453574926,3.509539453574926,262.47195999379375
24.490960989533846,278.12856681007804,3.3586680895428,3.3586680895428,262.09396089554764
23.862987630827774,278.3503376525964,3.2774451299981004,3.277445129998102,261.9846295909214
23.235014272121816,278.85036689931076,3.3157303591920915,3.315730359192093,262.04473816765
22.607040913415858,279.4259068469961,3.319287782701474,3.319287782701473,262.1838635085657
21.9790675547099,279.4144531777443,3.139671448220411,3.1396714482204118,262.7646888290798
21.351094196003828,280.07717300702546,3.199292601941192,3.199292601941192,262.4224151204665
20.72312083729787,279.8533708676817,3.3664085600394924,3.3664085600394946,262.302130658737
20.09514747859191,279.794303102152,3.276044325542403,3.2760443255424008,262.7474112915069
19.46717411988584,280.3180040513732,3.0732905455309196,3.0732905455309196,262.5812499654682
18.83920076117988,280.24245439690674,3.285452809528687,3.2854528095286883,262.16341674826845
18.211227402473924,280.5724867185423,2.799473376063907,2.7994733760639097,262.6251846605939
17.58325404376785,280.6902941853421,2.963841980410528,2.963841980410526,262.641262288921
16.955280685061894,280.50655954189364,3.0147865369684426,3.014786536968444,262.3142400452625
16.327307326355935,280.636868891469,3.1266457971289747,3.1266457971289734,262.53981503759513
15.699333967649864,280.9830726505203,3.1040008027785193,3.104000802778518,262.90702271913096
15.071360608943905,281.1807586392147,2.9148299907800337,2.914829990780031,262.1407724351647
14.443387250237947,281.0102404878697,3.3223345018076818,3.3223345018076818,262.64908468009423
13.815413891531875,281.1499246146728,3.149659311450331,3.149659311450333,263.1712988341963
13.187440532825917,281.1925802779546,3.0541359513472783,3.0541359513472774,262.2758986931631
12.559467174119959,281.1719282495626,2.995771393079518,2.9957713930795165,262.6064476349126
11.931493815413887,281.1906132368284,2.963196593015401,2.9631965930154016,262.7072773089378
11.303520456707929,281.1352551160208,2.9917353810169884,2.9917353810169884,262.457737048579
10.67554709800197,281.04357014976307,2.9161644206034203,2.9161644206034194,262.94556247479085
10.047573739296013,280.6818460049186,3.115943514414163,3.115943514414162,262.71914856298133
9.41960038058994,281.1282253843014,2.9352660825938934,2.935266082593892,262.7800687290772
8.791627021883983,281.1679908584665,2.792513895001358,2.7925138950013566,262.057268359751
8.163653663178025,281.31567299748974,3.0811573269623898,3.08115732696239,262.2783033440973
7.535680304471953,280.9070284639098,2.9783966814799974,2.9783966814799983,262.87282750222124
6.9077069457659945,281.3583678987954,3.061337709840188,3.061337709840188,262.7353970049222
6.279733587060036,281.18466772169836,3.1745123977633796,3.174512397763379,262.724763855241
5.6517602283539645,281.1570645997086,2.9162918252267027,2.916291825226705,262.6173731904767
5.023786869648006,280.99869120866543,2.790575495879656,2.7905754958796547,263.0351737261156
4.395813510942048,281.08475670193366,2.9717741651293546,2.9717741651293563,263.0419122674928
3.7678401522359763,281.34542838432884,2.9222723342463546,2.922272334246354,262.33513710503604
3.139866793530018,281.2575091606914,2.9971689645049167,2.997168964504915,262.51183725652544
2.51189343482406,281.2769930647802,2.815392075927167,2.8153920759271673,262.5345817045332
1.8839200761179882,281.0856853652202,3.0059309589344463,3.0059309589344463,262.81538744861723
1.25594671741203,281.0877998912633,2.6114945179204585,2.6114945179204563,262.24763328991304
0.6279733587060718,281.333057764653,2.9572468169174018,2.9572468169174013,262.2379794864664
0.0,281.1242993684093,2.918441281896443,2.9184412818964445,262.69953710268027
