z in mm,sigma xx in mm2,sigma xy in mm2,ysigma yx in mm2,sigma yy in mm2
0.0,283.9936095178144,2.9699124967097825,2.9699124967097816,262.57389570719226
0.6896551724137931,278.6560088098578,3.0877549050056983,3.087754905005699,251.9164368830663
1.3793103448275863,278.50540507823047,3.1695691141688713,3.1695691141688704,251.49379025957995
2.0689655172413794,278.87344651229034,3.1659079695623635,3.1659079695623635,252.00579105255437
2.7586206896551726,278.4614881766844,3.2906743579225606,3.2906743579225597,251.96156308986608
3.4482758620689657,278.5430268326088,3.097098404953,3.0970984049530017,252.19121831150895
4.137931034482759,279.0280196926758,3.204464369833448,3.2044643698334485,251.4968913635855
4.827586206896552,278.9139986157825,3.3190917460394225,3.319091746039421,251.92582208603423
5.517241379310345,278.9064112730471,3.290140701845406,3.2901407018454076,251.9437483522805
6.206896551724139,278.78020771277045,3.260687292233874,3.2606872922338743,252.05882737610614
6.8965517241379315,278.7415859811455,3.2198726064792136,3.2198726064792154,252.3802079581461
7.586206896551724,278.5057975362232,3.368813675990969,3.3688136759909706,252.20570852696187
8.275862068965518,278.17741968832973,3.2957888339670776,3.2957888339670776,252.3786055218075
8.965517241379311,278.6183936529203,3.149107297493583,3.149107297493584,251.80470476389738
9.655172413793103,278.7389882511583,3.111633697958947,3.1116336979589496,251.92785158901185
10.344827586206897,278.7702194424936,3.1081972582816655,3.1081972582816686,252.35897749797556
11.03448275862069,279.00149920930437,3.479247441452187,3.479247441452185,252.21546390266636
11.724137931034484,279.34670478600253,3.0717950482634575,3.0717950482634575,252.6276431735606
12.413793103448278,279.25184095953085,3.084435699965499,3.0844356999654976,252.29673153130867
13.10344827586207,279.16090452271055,3.2288005713350048,3.228800571335006,252.87815519051435
13.793103448275863,279.0790319993113,2.943507788265728,2.9435077882657272,252.4239916196958
14.482758620689657,279.40504849972814,2.932924499718134,2.9329244997181356,253.384042292837
15.172413793103448,279.4232887559935,3.136437338820065,3.136437338820062,252.77795144176397
15.862068965517242,278.8497055511401,3.236538772470762,3.23653877247076,252.62193381892476
16.551724137931036,278.93515063255325,3.498792756479858,3.4987927564798573,252.5127355455079
17.24137931034483,278.9750422901587,3.1303651897386597,3.130365189738659,252.62308010831748
17.931034482758623,278.92877942086034,2.7698091532287337,2.7698091532287323,253.53701846177572
18.620689655172416,279.0383254762072,3.236798608745619,3.2367986087456204,252.6920623717905
19.310344827586206,279.1874924751822,3.2628978484355415,3.2628978484355406,252.63741285372902
20.0,278.83591444199175,3.328290084823627,3.328290084823627,252.7380769523284
20.689655172413794,279.0318606458458,3.11910561831788,3.1191056183178794,252.87743602618093
21.379310344827587,278.9211887257322,3.6447373934373997,3.6447373934374006,252.9065886711774
22.06896551724138,279.2817605632186,3.5418355606918075,3.5418355606918075,252.2381743760251
22.758620689655174,279.01722762637667,3.3921066714996364,3.392106671499638,252.90573121813588
23.448275862068968,278.5963583960529,3.218079580642606,3.218079580642605,253.15717349616526
24.13793103448276,278.74034922239423,3.068344398824322,3.0683443988243213,252.89206941881264
24.827586206896555,278.9872800662937,3.4268058529897862,3.4268058529897854,252.0003954718518
25.517241379310345,278.94575063400725,3.4377504016336795,3.4377504016336804,252.99322833981722
26.20689655172414,278.9855009466339,3.4325049398552148,3.4325049398552148,253.0138569588334
26.896551724137932,279.20426463024694,3.0786284632342005,3.078628463234199,253.27244760293075
27.586206896551726,279.109550324701,3.4039380341662793,3.403938034166278,252.9928072567355
28.27586206896552,279.0346688471785,3.527797051902448,3.527797051902448,252.8790380135487
28.965517241379313,279.47830260928083,3.4371277034337995,3.4371277034337977,252.58050531135203
29.655172413793107,279.18540362266856,3.517835673047627,3.517835673047627,253.15850963686896
30.344827586206897,278.84863813443906,2.908772859104839,2.9087728591048374,253.23742153595117
31.03448275862069,278.9711062487298,3.266589323743412,3.266589323743412,253.2169304359419
31.724137931034484,278.9820057773478,3.4134696389968817,3.4134696389968844,253.29629618199678
32.41379310344828,278.86332214164753,3.4226615787464265,3.422661578746428,253.47090881961194
33.10344827586207,278.49502783035143,2.948426960270628,2.948426960270628,253.37618503639166
33.793103448275865,278.73719402406385,3.1901646087331605,3.1901646087331588,253.228691046406
34.48275862068966,278.5484155033749,3.1215788672115727,3.1215788672115736,253.45342378357904
35.17241379310345,278.4887147748063,3.4629837554258165,3.462983755425817,252.8279838156634
35.862068965517246,278.57521239693233,3.523592392791498,3.523592392791497,253.09144750215455
36.55172413793104,278.16453843948665,3.624043136076645,3.624043136076644,253.3107185030706
37.24137931034483,277.3309434607103,2.5719473344359662,2.5719473344359645,256.69391950620127
37.931034482758626,278.72093844537886,3.5255193132964293,3.5255193132964275,253.18903648083176
38.62068965517241,278.6316656716383,3.38267524214314,3.3826752421431427,253.58689622977278
39.310344827586206,278.8257823041943,3.2856823766083987,3.2856823766084005,253.17058821745746
40.0,278.3745253935634,3.113400079347511,3.113400079347511,253.34796330298843
40.689655172413794,278.39443295116496,3.4997577704252314,3.4997577704252323,253.38070032112913
41.37931034482759,278.24622636418354,3.4608490713757387,3.4608490713757374,252.5602071315757
42.06896551724138,278.4207312977583,3.218850947842667,3.218850947842667,253.081457830498
42.758620689655174,278.1579552985375,3.364782849288679,3.3647828492886798,253.89880407997646
43.44827586206897,278.21068915249924,3.4857612600961265,3.4857612600961256,253.5519216671021
44.13793103448276,277.9859842817414,3.3034527563016693,3.303452756301671,253.30312229422898
44.827586206896555,278.14298012505395,3.0704490195792014,3.0704490195792027,253.60540872479373
45.51724137931035,278.4189750521813,3.253077378202748,3.2530773782027502,253.44902836351937
46.20689655172414,278.0313484503221,3.2618694860431905,3.2618694860431914,253.2973538865201
46.896551724137936,277.8517294115609,3.341485403536131,3.3414854035361303,253.65174789185005
47.58620689655173,277.90574250439875,3.2122128332713182,3.212212833271316,253.16230742914703
48.27586206896552,277.94946608791565,3.1364569672826965,3.1364569672826965,253.63715552238162
48.96551724137932,277.9646903957888,3.3360031948227356,3.336003194822735,253.04982356817953
49.65517241379311,277.8783053369882,3.272309567310466,3.272309567310468,253.3007782725562
50.3448275862069,278.08453675877377,3.311833423415797,3.311833423415798,254.06878452111806
51.03448275862069,277.66141419743053,3.2924639718342417,3.2924639718342408,254.0700311558013
51.724137931034484,277.5094696790601,3.336782213304929,3.336782213304929,254.11300265607653
52.41379310344828,277.57625892095,3.448129095610637,3.44812909561064,253.93024486852022
53.10344827586207,277.7043069691572,3.2602947461764673,3.2602947461764673,254.33770895372123
53.793103448275865,277.4146083842621,3.5173533128352945,3.5173533128352954,254.19467091425147
54.48275862068966,277.1017929266563,3.2382828705051048,3.2382828705051043,253.65143558271643
55.17241379310345,277.63738942510673,3.6778969659149547,3.6778969659149543,254.23029992258537
55.862068965517246,277.1826265466239,3.2974499011465235,3.297449901146524,253.86098503397997
56.55172413793104,277.0529812811376,3.3409351272117878,3.3409351272117878,254.06707508357275
57.24137931034483,277.1088363549875,3.2241612328934246,3.224161232893423,254.02531745030416
57.931034482758626,276.97479553600465,3.3785202409449795,3.3785202409449795,254.95635369869063
58.62068965517242,277.0044791054676,3.4760368083883733,3.4760368083883733,254.22511126914043
59.31034482758621,277.03721447183835,3.4632628017117915,3.4632628017117932,254.41851974760914
60.00000000000001,277.05431457092976,3.6481180516179634,3.648118051617965,254.57812286497415
60.689655172413794,276.68213174687503,3.170869701152512,3.1708697011525118,254.28833419462714
61.37931034482759,276.6100392967948,3.327245736581629,3.3272457365816273,253.96212974598419
62.06896551724138,279.9113895186945,3.4860038296158735,3.4860038296158744,253.07070536335792
62.758620689655174,276.7626098337069,3.433406657955575,3.433406657955574,254.39382573594068
63.44827586206897,276.71436142123014,3.5788226700928476,3.5788226700928476,254.9955471388028
64.13793103448276,276.5152323101492,3.2788472083455757,3.2788472083455775,254.07714787434045
64.82758620689656,276.6987860244111,3.4465992645190493,3.4465992645190497,254.7957197818742
65.51724137931035,276.941060084704,3.4534767868040523,3.45347678680405,254.62265433281723
66.20689655172414,276.45981538753813,3.3033468470729193,3.30334684707292,254.9405093634265
66.89655172413794,276.498202850461,3.370329140576417,3.3703291405764184,254.6736160863628
67.58620689655173,276.2786551469524,3.3936783403940964,3.3936783403940964,254.39754249195997
68.27586206896552,275.9084859692848,3.1578596647609922,3.1578596647609904,254.93460443522034
68.96551724137932,276.42479029209704,3.6248912796668917,3.624891279666891,254.3128658916852
69.65517241379311,275.9364941366499,3.390458175562802,3.390458175562801,255.2072811624091
70.3448275862069,276.10673435081793,3.610607436595902,3.610607436595901,254.67488673888727
71.0344827586207,276.0571067604004,3.3418292579995366,3.3418292579995352,254.87798330168965
71.72413793103449,276.2395279041594,3.2729625679572356,3.2729625679572365,254.55517142617083
72.41379310344828,276.216907598244,3.4227142145432516,3.4227142145432516,254.67160154309892
73.10344827586208,275.85176870882225,3.522668253362234,3.5226682533622315,254.91034331951906
73.79310344827587,275.97288390936586,3.546875260117486,3.546875260117487,254.7136661233123
74.48275862068967,275.76520753424427,3.3454789038507,3.3454789038507013,254.42703732090592
75.17241379310346,275.7364827996764,3.346654033375695,3.3466540333756924,254.28384577226026
75.86206896551725,275.9078398190197,3.6006485791547584,3.6006485791547593,255.51912821909727
76.55172413793105,275.5573458359274,3.251703670743431,3.2517036707434332,254.78951435303546
77.24137931034483,275.1834392806275,3.68073073203479,3.6807307320347893,254.97133418102646
77.93103448275862,275.42977913199735,3.5837997058586963,3.5837997058586955,255.52556135793282
78.62068965517241,275.4183271506153,3.4021995920692913,3.4021995920692896,254.99683179515807
79.3103448275862,274.8649477841865,3.6120090899193746,3.6120090899193737,255.9661234528527
80.0,275.2176482830972,3.796936806115292,3.796936806115291,255.2109348417223
80.6896551724138,275.1963049224742,3.513947546019296,3.5139475460192946,254.81499491589153
81.37931034482759,274.83513985314045,3.483581973008222,3.4835819730082247,255.68041506195357
82.06896551724138,274.7630329448091,3.3435814651674596,3.343581465167463,255.1094500252363
82.75862068965517,275.2429951447319,3.631879859474042,3.631879859474042,255.36701081064243
83.44827586206897,275.0439674340459,3.5713100033855665,3.5713100033855643,255.28030949001968
84.13793103448276,275.08991043121307,3.491930836506413,3.491930836506413,255.85611890075413
84.82758620689656,274.9289487232504,3.4997020019721057,3.4997020019721043,255.1341913032038
85.51724137931035,274.47686999355966,3.84938217437546,3.849382174375462,255.72411137519566
86.20689655172414,274.52235300763294,3.7354959213659678,3.735495921365967,255.61036370927442
86.89655172413794,274.39083212974305,3.467995222644752,3.467995222644752,255.70192795048857
87.58620689655173,274.70103090223824,3.551713486940929,3.551713486940928,255.63372904507622
88.27586206896552,274.3658048543289,3.731944546050147,3.731944546050147,255.43442233251525
88.96551724137932,273.9667911881993,3.2936406136955774,3.2936406136955756,255.66214485254636
89.65517241379311,274.2949727501834,3.8725157346015657,3.8725157346015666,255.1094856876146
90.3448275862069,274.0663515798341,3.7914143616035494,3.7914143616035485,255.4736592464817
91.0344827586207,274.27367082721446,3.8154598773163633,3.8154598773163606,256.1294334555157
91.72413793103449,273.8421213979735,3.713535242857018,3.713535242857017,256.03331084143065
92.41379310344828,273.4816952279555,3.5365160786460854,3.536516078646085,255.84712305505226
93.10344827586208,274.1965345660605,3.5582924461735184,3.55829244617352,255.60773787812238
93.79310344827587,273.88563460579235,4.011045702009059,4.011045702009056,255.73467735104856
94.48275862068967,273.5500551423466,3.8691875127680206,3.8691875127680198,255.78513408705246
95.17241379310346,273.4620567999966,3.807520315617991,3.8075203156179915,255.3132314104966
95.86206896551725,273.41867567239547,3.8912411966571643,3.8912411966571616,256.14271382533855
96.55172413793105,273.2249329640449,3.6933034466833097,3.6933034466833106,255.85409202064287
97.24137931034484,273.39053494195247,3.851614015149262,3.85161401514926,256.4370118302188
97.93103448275863,273.2827436427304,4.000862760914266,4.000862760914266,255.9856144457464
98.62068965517243,272.8112495085386,3.777738271874924,3.7777382718749224,256.0587843080438
99.31034482758622,272.65189713055486,4.083090302655979,4.08309030265598,256.1185074629535
100.0,272.97512881848604,4.221607341351477,4.221607341351477,255.6314251413609
100.6896551724138,272.76168960243757,3.633379873875325,3.633379873875325,256.1556201271004
101.37931034482759,272.7394580448288,3.742452204491341,3.742452204491341,256.41912319866196
102.06896551724138,272.6683241902501,3.843192789138736,3.843192789138735,256.098695060633
102.75862068965517,272.16129608814623,4.145492323460701,4.145492323460699,257.03176096223956
103.44827586206897,272.4781828394582,4.021310224828633,4.0213102248286345,256.8965340316279
104.13793103448276,272.2116070076571,3.808473105184648,3.808473105184648,256.87489187691455
104.82758620689656,272.11619022580226,3.9755330848501162,3.9755330848501154,257.2742421056116
105.51724137931035,272.05004765573733,3.980972428812945,3.980972428812945,257.00271192483734
106.20689655172414,272.181088195811,3.633029122325607,3.633029122325607,256.2637225817149
106.89655172413794,272.44105219551443,3.982651963911587,3.9826519639115854,255.80546856831
107.58620689655173,271.86180451351527,3.833883032809699,3.833883032809699,256.6168127412449
108.27586206896552,271.7816662715322,3.9461376136679,3.946137613667898,256.6368621161492
108.96551724137932,271.7307308974266,3.66006587488364,3.660065874883642,257.0132907522643
109.65517241379311,271.49310259949266,4.146556784247968,4.146556784247969,256.53444986556667
110.3448275862069,271.9424751102185,3.7780938957052466,3.7780938957052475,256.6023084684888
111.0344827586207,272.31097170766816,4.439471236206946,4.439471236206944,257.01611827081854
111.72413793103449,271.51204287859457,4.094511272775034,4.094511272775034,257.3014427664304
112.41379310344828,271.4573304253925,3.9137371778669725,3.9137371778669734,256.83727783565774
113.10344827586208,271.43195964198924,4.094439408208578,4.094439408208579,257.5639498300311
113.79310344827587,271.2961705754894,3.8199740568029172,3.819974056802921,257.83253965416003
114.48275862068967,271.2648136820359,4.0626547753757185,4.062654775375721,257.2189958399351
115.17241379310346,271.4609240342999,3.839996630482272,3.839996630482273,256.42027551338174
115.86206896551725,270.9222089938125,4.1253504758849004,4.1253504758849004,255.80227461086793
116.55172413793105,270.80855535762316,4.073866647849875,4.073866647849874,257.27777887363385
117.24137931034484,271.1031389491703,4.322874839769745,4.322874839769745,256.6364970841852
117.93103448275863,271.0432103421132,4.257978472386484,4.257978472386485,256.6395829906234
118.62068965517243,270.0908689117109,4.012612909668676,4.012612909668675,256.2763071418137
119.31034482758622,270.4559814499637,3.6464394223343035,3.6464394223343044,256.2169576469094
120.00000000000001,269.84544719675677,4.025916545924004,4.025916545924006,256.616125838021
120.68965517241381,270.48143486596285,4.175148050321293,4.175148050321293,255.97575571587794
121.37931034482759,270.11369433998925,4.1534184025653875,4.153418402565386,256.4807323985408
122.06896551724138,269.91756184279666,4.233257692567759,4.233257692567757,256.40351172072354
122.75862068965517,269.7523508512208,4.210809469873325,4.210809469873325,257.10181892722335
123.44827586206897,269.6170093367537,4.445745363000691,4.445745363000693,257.0915661389475
124.13793103448276,269.7948716649403,4.058897849202774,4.058897849202775,256.7313337148792
124.82758620689656,269.4862592677191,4.556113595212512,4.55611359521251,257.2849701547574
125.51724137931035,269.65833751796976,4.299986678724074,4.299986678724075,256.8213910888697
126.20689655172414,269.18277151921365,4.121819427956508,4.121819427956508,257.34155866325193
126.89655172413794,269.1271122643168,4.47002316546052,4.470023165460521,257.19095079017484
127.58620689655173,268.9470961680649,4.464126328186233,4.464126328186231,257.35722994557386
128.27586206896552,269.17916878017934,4.260460605418201,4.260460605418201,256.9984985567952
128.96551724137933,269.1124896952708,4.763934688912611,4.763934688912611,257.05327646205507
129.6551724137931,269.072216335064,4.350348680840187,4.350348680840187,257.0482415556242
130.34482758620692,268.7662328311613,4.271144076768954,4.271144076768953,258.47241622353886
131.0344827586207,269.3318180112426,5.033184207142028,5.0331842071420265,257.95108253129985
131.7241379310345,268.16357517082497,4.130282879352444,4.1302828793524435,257.951078456875
132.41379310344828,268.9126169082779,4.2815285178677716,4.281528517867772,257.77373792292036
133.10344827586206,268.4378433283496,4.326250379820401,4.326250379820401,257.76686063769915
133.79310344827587,268.030223275653,4.705760516436375,4.705760516436373,258.2639604999224
134.48275862068965,268.1615410602192,4.318057601042085,4.318057601042084,258.689807215738
135.17241379310346,267.81790517136983,4.271425051924414,4.271425051924416,258.3738579888849
135.86206896551724,267.78941319360064,4.703930680155826,4.703930680155826,257.5963453019636
136.55172413793105,267.58017334177805,4.543554350943507,4.543554350943504,257.6634186118199
137.24137931034483,267.5412487187041,4.728438073071731,4.728438073071731,258.2873840353232
137.93103448275863,267.37820401334454,4.669968857324711,4.669968857324711,257.5867569549858
138.6206896551724,267.25700148055984,4.425337625325667,4.425337625325667,258.17643994596125
139.31034482758622,267.4708425837616,4.761092687344303,4.761092687344303,257.99208231660066
140.0,266.8504635366744,4.857326845471998,4.8573268454719996,258.423345109679
140.6896551724138,266.82596348417053,4.580468767744873,4.580468767744874,258.3585785468717
141.3793103448276,267.0560403036532,4.601074946183325,4.601074946183324,258.2203556804226
142.0689655172414,266.5049541135368,4.8014589037358775,4.801458903735881,258.4071065593009
142.75862068965517,266.39552563542077,4.736475987299533,4.7364759872995315,259.6422566135888
143.44827586206898,266.4361274983446,4.489804186981552,4.489804186981552,259.1030265219619
144.13793103448276,265.86113860592576,4.879442691668863,4.879442691668862,257.9762795958028
144.82758620689657,266.26033994097577,4.7860952413064926,4.786095241306491,258.33862937351284
145.51724137931035,265.76805265842484,4.737544652497764,4.737544652497766,258.15385962701157
146.20689655172416,266.1007656610163,4.808951743048738,4.808951743048736,258.0301776594473
146.89655172413794,265.5440003320997,4.750059826420646,4.750059826420648,259.23222711504144
147.58620689655174,265.6920957796632,4.9517688534682325,4.951768853468233,258.7748341380889
148.27586206896552,265.84747104219673,5.024396176725837,5.024396176725839,258.06755297881864
148.96551724137933,265.38696725155575,4.91002207983765,4.910022079837649,259.2142805307121
149.6551724137931,265.3992462443062,5.088617761117214,5.088617761117216,258.669917361113
150.34482758620692,265.0184588250983,4.73273460440119,4.73273460440119,258.36777811601144
151.0344827586207,265.33584807852253,5.23255508848893,5.23255508848893,259.433299438218
151.7241379310345,265.15527582666084,5.103206169276884,5.103206169276884,258.7572772282649
152.41379310344828,264.87159827437097,5.107065341894464,5.107065341894464,258.47937199690017
153.1034482758621,265.0695855265307,5.0773047233349695,5.077304723334969,258.5867345911323
153.79310344827587,265.04756024628824,4.748719820509325,4.748719820509327,259.4110869357493
154.48275862068965,264.64965718391085,4.589868050825684,4.589868050825684,259.7098620144213
155.17241379310346,264.41447190559177,5.036772730634122,5.036772730634122,259.3498067264341
155.86206896551724,264.4806413435658,4.898709416676656,4.898709416676661,259.42693785819205
156.55172413793105,264.568675351798,4.981637550838843,4.981637550838841,259.4019311149544
157.24137931034483,264.158348836566,4.734552433493048,4.734552433493047,259.89371043579575
157.93103448275863,264.1505032307761,5.170535442793743,5.170535442793742,259.73073200426234
158.6206896551724,261.07462748092235,5.9418905179755,5.9418905179755,260.6063374728327
159.31034482758622,260.0763645685312,5.693896411045261,5.693896411045261,260.4956808202739
160.0,259.5177934444585,5.691327582453228,5.6913275824532255,261.05572266428254
160.6896551724138,259.742778259918,5.49130668740727,5.491306687407268,260.6005349392863
161.3793103448276,260.25033035095606,5.746155563599026,5.746155563599026,260.70691246522034
162.0689655172414,260.1888239676753,5.653449926673605,5.653449926673605,261.36966892532024
162.75862068965517,260.0884297113114,5.529848682700038,5.529848682700036,261.1905304657903
163.44827586206898,259.7956103902494,5.705085041318108,5.705085041318109,261.4795613491409
164.13793103448276,259.5051902575047,6.062502141443545,6.062502141443547,260.9505922281029
164.82758620689657,259.10591595593877,5.788936725444521,5.788936725444523,261.06882185701454
165.51724137931035,259.1723219196535,6.097141357918035,6.097141357918035,261.1765669519674
166.20689655172416,259.1395189236634,6.043853074682897,6.043853074682897,260.9516014433542
166.89655172413794,259.34283595761326,5.968349680255919,5.968349680255917,260.6379968013762
167.58620689655174,258.7625573075037,6.106349864493069,6.106349864493071,260.8704693728596
168.27586206896552,258.95866386206865,5.754050557563215,5.7540505575632155,261.1742171886378
168.96551724137933,258.5005014353106,6.33768334355337,6.3376833435533655,261.4818038200509
169.6551724137931,258.48018302229843,6.050675072040895,6.050675072040896,261.2610774632511
170.34482758620692,258.63616276478393,6.143680678261169,6.143680678261169,260.4818072528233
171.0344827586207,258.81099499087867,6.242396358449239,6.242396358449237,261.0938438958597
171.7241379310345,258.28155211848514,5.691110954746703,5.691110954746701,261.2782096277889
172.41379310344828,257.87130390576846,6.154772188187629,6.154772188187626,261.8886251410429
173.1034482758621,258.2260133056361,6.050466263624535,6.050466263624539,261.0558410146615
173.79310344827587,257.6307573876403,5.968544685836094,5.968544685836092,261.02279085962414
174.48275862068968,257.9311431138591,6.0603577083803835,6.060357708380381,261.2728198865948
175.17241379310346,257.4337264185285,5.9703502281259935,5.9703502281259935,261.44269530103605
175.86206896551727,257.6144786670725,6.237723377830755,6.237723377830755,260.93327863435724
176.55172413793105,257.79944432443597,6.237208519550292,6.2372085195502915,261.6011640987522
177.24137931034483,257.7734269530509,6.079119125748921,6.079119125748921,261.8279395021219
177.93103448275863,257.28147480140217,6.104574620206691,6.104574620206693,262.80989331328396
178.6206896551724,257.4045865115087,6.018015892621205,6.018015892621205,262.12910779312705
179.31034482758622,258.11677585240864,6.180848702767423,6.180848702767421,261.3598594009911
180.0,256.6391504527485,6.290438903831781,6.290438903831783,263.96830113732966
180.6896551724138,257.0025489064584,6.080461338697346,6.080461338697347,262.3120965654097
181.3793103448276,256.8588681004637,6.141968974142626,6.141968974142626,262.39334197353975
182.0689655172414,256.75503717386476,5.908084076475252,5.908084076475253,262.7126391112439
182.75862068965517,256.6990265905885,6.38335502348317,6.38335502348317,262.160290593161
183.44827586206898,256.7835662713245,6.306432774681981,6.306432774681981,262.8583417811321
184.13793103448276,256.54000506573146,6.352732499000727,6.352732499000723,263.0332202222116
184.82758620689657,256.3752420548755,6.327912160378448,6.32791216037845,262.58611572845786
185.51724137931035,256.201800870871,6.300858258337473,6.300858258337475,262.2639464828042
186.20689655172416,256.36990848798337,6.426581113439397,6.426581113439401,262.86726716276485
186.89655172413794,256.21349973225625,6.38748885141297,6.38748885141297,262.5954829216894
187.58620689655174,256.2450200814385,6.310412821234571,6.310412821234571,262.6347092918742
188.27586206896552,255.85433646180573,6.561171084556928,6.5611710845569275,262.87483715490737
188.96551724137933,255.75283057711204,6.218538148369027,6.218538148369024,263.12612921359556
189.6551724137931,255.42274247369002,6.489757673165378,6.489757673165376,263.4062835090922
190.34482758620692,256.2349547445469,6.588218288281077,6.588218288281079,262.8699912452766
191.0344827586207,255.68768202813663,6.5003823390667845,6.5003823390667845,263.0486947400032
191.7241379310345,255.89089114858083,6.643572834566774,6.643572834566775,262.75988169637
192.41379310344828,255.3533641850519,6.370740433919513,6.370740433919513,263.57281824301566
193.1034482758621,255.0983335165806,5.937066418390076,5.937066418390077,262.6918787160879
193.79310344827587,254.4150475172687,6.462954608805918,6.462954608805918,262.60017906565764
194.48275862068968,254.169478423569,6.669031840468486,6.669031840468489,262.4308434297319
195.17241379310346,254.2739770367356,6.743616047765746,6.743616047765746,262.93203535064526
195.86206896551727,254.5799160345024,7.078741864131148,7.078741864131151,263.06101109810953
196.55172413793105,253.46883519164322,6.713825157746152,6.713825157746154,263.1056975516678
197.24137931034485,254.59441192121474,7.035289063173988,7.035289063173988,262.5118072438937
197.93103448275863,254.27824018879485,7.142838591795923,7.142838591795923,262.6149815822896
198.62068965517244,253.54559576603694,6.96453958584388,6.96453958584388,262.7196799668999
199.31034482758622,253.85077919046154,6.969592034923057,6.969592034923054,262.80364216290496
200.0,253.51427628330964,6.789158510435581,6.7891585104355805,262.9076889565665
200.6896551724138,253.65179727820976,6.6357622770521925,6.6357622770521925,263.41388380609953
201.3793103448276,254.00131673345047,6.794555415350087,6.794555415350083,263.0325265803337
202.0689655172414,253.32153647678115,6.75085923231875,6.750859232318748,263.14098211380684
202.75862068965517,253.15529490552058,6.779413554176065,6.779413554176065,263.7935239289377
203.44827586206898,253.38271424009707,6.222368022273432,6.222368022273432,263.301313096178
204.13793103448276,253.0252767099133,6.67890741726564,6.67890741726564,263.38348498620456
204.82758620689657,253.10812186539027,7.094434775557924,7.0944347755579225,262.9873163127119
205.51724137931035,252.38137314376178,6.921943014539875,6.921943014539876,263.28701415906824
206.20689655172416,253.24420890698343,6.830017162941541,6.830017162941541,262.8083107213106
206.89655172413794,253.1590708945915,6.921765941101978,6.921765941101978,263.19104207061207
207.58620689655174,252.8566197976588,6.818008537563243,6.8180085375632435,263.2003177945843
208.27586206896552,252.74687562690016,6.929906545300391,6.929906545300393,263.5943198421078
208.96551724137933,252.87152428843572,7.0973154113811665,7.097315411381165,263.4611355489967
209.6551724137931,252.18093097217553,6.630356279399369,6.630356279399368,263.77166264255044
210.34482758620692,252.4014968920284,6.893363144130008,6.893363144130008,263.2649269700377
211.0344827586207,252.2109907354794,7.134584722524062,7.134584722524064,264.04066512364756
211.7241379310345,252.55318373491502,7.165469021869236,7.165469021869236,264.0775757384946
212.41379310344828,251.8507708043019,7.012772105904171,7.012772105904167,263.83684742939045
213.1034482758621,251.93715790249965,7.231072276229121,7.231072276229121,264.0272611292561
213.79310344827587,251.4726769308109,7.257244326311545,7.257244326311547,264.1640022836546
214.48275862068968,252.10906913289816,7.353468166499969,7.353468166499971,263.8160990483479
215.17241379310346,251.76657868971765,7.334450898476259,7.334450898476261,264.5457757325975
215.86206896551727,251.50294342448845,7.41474337263105,7.41474337263105,263.678888254112
216.55172413793105,251.6171152236144,6.975863470891444,6.975863470891444,263.5549736630661
217.24137931034485,251.66499774540281,7.060965231972734,7.060965231972734,263.7138728123228
217.93103448275863,251.65429178801367,7.0083613661144275,7.008361366114429,263.7403822455856
218.62068965517244,251.539022784382,6.9854715444924995,6.985471544492501,264.3163264940259
219.31034482758622,251.01423071047213,7.186806868250443,7.1868068682504465,263.9186959814657
220.00000000000003,250.64442904003843,7.27669719179202,7.27669719179202,264.0229906552075
220.6896551724138,251.26450905993113,6.947308792605326,6.947308792605323,263.6564024439455
221.3793103448276,251.62030209340338,7.2685860029988065,7.2685860029988065,263.59176544223095
222.0689655172414,251.33667252409813,7.287090275271554,7.287090275271556,264.51789525063884
222.75862068965517,251.26631414976723,7.059689272290211,7.059689272290206,264.5297006927375
223.44827586206898,251.4863684109161,7.091951900954506,7.091951900954507,263.6726254181978
224.13793103448276,251.01757774323363,6.910599622806252,6.910599622806253,264.17034657101107
224.82758620689657,250.82384978134488,7.285917245762938,7.285917245762937,263.62820951516505
225.51724137931035,250.22148655864015,7.599975978872366,7.599975978872363,264.1130689536858
226.20689655172416,250.57073901348028,7.276053719908015,7.276053719908015,263.24056597259613
226.89655172413794,249.62274963169847,7.46076499976223,7.460764999762228,263.9228306378516
227.58620689655174,250.00057553631288,7.28987132659602,7.2898713265960176,264.28095468968456
228.27586206896552,250.85481169421254,6.714098998225636,6.714098998225636,264.10294988076447
228.96551724137933,250.57155702942222,7.5461521016917175,7.546152101691716,263.9292139079447
229.6551724137931,250.33682070567627,7.5143486739031,7.5143486739031005,264.54262109918443
230.34482758620692,250.40299533766836,7.261935768342026,7.261935768342026,263.68846814908534
231.0344827586207,250.2392481289683,7.394386912205644,7.394386912205644,264.22279049689143
231.7241379310345,250.31216454981615,7.513949286183792,7.513949286183792,264.3996468308329
232.41379310344828,250.21775220731035,7.375882668999073,7.375882668999071,263.7719617499719
233.1034482758621,250.51621181275306,7.29255247430789,7.29255247430789,263.60079007039286
233.79310344827587,250.42680574743162,7.139878323795853,7.139878323795853,263.6089207329506
234.48275862068968,250.18114993403373,7.563412814827845,7.563412814827843,264.2931300052683
235.17241379310346,250.20940726489724,7.368530327490687,7.368530327490685,264.4755839571958
235.86206896551727,249.72836976060577,7.229213697290912,7.22921369729091,264.4235821960795
236.55172413793105,249.75354203498011,7.353785825973024,7.3537858259730235,264.9611801092752
237.24137931034485,249.10739332326867,7.376334152051632,7.376334152051633,264.95193715949165
237.93103448275863,249.44369090181365,7.773174688886924,7.773174688886924,264.0122367100583
238.62068965517244,249.67314640413346,7.591232343699944,7.591232343699945,264.57673547141206
239.31034482758622,249.0467612686497,7.451842522758349,7.451842522758352,264.46337788835166
240.00000000000003,249.75988413643182,7.487955242491803,7.487955242491803,264.3357728787116
240.6896551724138,249.74106897998675,7.346587246276839,7.346587246276841,264.6965938168131
241.37931034482762,249.51468153199,7.25629725821474,7.25629725821474,264.37441062962233
242.0689655172414,249.88449492779702,7.412340927432396,7.412340927432398,264.72403427451974
242.75862068965517,249.95474797715312,7.221786436210479,7.22178643621048,264.26000504342903
243.44827586206898,249.80236579560594,7.47547623553101,7.475476235531007,264.39163664614995
244.13793103448276,249.93499017041466,7.590261380592896,7.590261380592894,263.6925478026119
244.82758620689657,249.27572857835924,7.4763265012895515,7.47632650128955,264.55653406571656
245.51724137931035,249.86084421232724,7.392778957213782,7.392778957213783,264.16663616383715
246.20689655172416,249.33159637852407,7.515447524557197,7.515447524557197,264.73926665019786
246.89655172413794,249.72256762681832,7.573533873747468,7.57353387374747,263.5771034875543
247.58620689655174,250.58541900410532,7.161002658029431,7.161002658029431,263.795412359394
248.27586206896552,250.31873935474243,7.564714298539348,7.564714298539352,263.90078406649894
248.96551724137933,249.9508859424153,7.571677348228681,7.571677348228677,264.17460108489695
249.6551724137931,250.24315178611286,7.44410383453657,7.44410383453657,264.3267687247532
250.34482758620692,250.25198509579744,7.04533298718486,7.045332987184862,264.7127811566697
251.0344827586207,250.4534065357412,6.89301060213487,6.893010602134869,264.2672879357261
251.7241379310345,250.29996876646086,7.236224502007001,7.236224502007001,263.98226243730613
252.41379310344828,250.3620821217882,6.943986356834103,6.943986356834105,264.3680624943039
253.1034482758621,250.04200807860727,7.343329170845794,7.343329170845794,264.22816057228533
253.79310344827587,250.86073507536784,7.320934787759536,7.320934787759534,263.95557844409507
254.48275862068968,250.32329971657165,7.258113120490194,7.258113120490194,264.3944359905485
255.17241379310346,249.95820632962162,7.129789257569978,7.129789257569978,264.12637199629694
255.86206896551727,250.2704438313639,7.127479417192034,7.127479417192034,264.04855472511116
256.55172413793105,250.06229988588052,7.21847102365265,7.218471023652651,264.4896031706525
257.2413793103448,250.4123441749158,7.324088978003734,7.324088978003734,264.2349978700519
257.93103448275866,250.9022003199168,7.248698388999381,7.248698388999379,264.0755639029376
258.62068965517244,250.986329680847,7.333885275086796,7.333885275086796,263.64302199271566
259.3103448275862,251.14938066582667,7.239018157818184,7.239018157818182,263.7214584977666
260.0,250.6215725751235,6.984701472433178,6.984701472433182,263.85670444933794
260.68965517241384,250.66853261057398,7.273198082267719,7.273198082267717,263.70669638749246
261.3793103448276,250.70547303233354,7.199460880885198,7.199460880885199,263.41727475192613
262.0689655172414,250.95037660836627,7.304869988283141,7.304869988283139,263.57918870173876
262.7586206896552,250.91264523279764,7.160422854403312,7.160422854403312,263.3036543789195
263.448275862069,250.89982333710316,7.14740579994538,7.14740579994538,263.1795881289511
264.1379310344828,251.23347946005978,6.824944728857673,6.8249447288576714,263.67470393842046
264.82758620689657,251.37618656741526,6.917986371316747,6.917986371316748,263.0251697804576
265.51724137931035,251.34894905235586,6.785768745836319,6.785768745836319,262.8721151819125
266.2068965517241,251.28998823106528,7.245487157813292,7.245487157813294,263.30597953489126
266.89655172413796,251.28508085520278,6.855078302821366,6.855078302821368,263.8352741746478
267.58620689655174,251.61339000197964,6.803687507779656,6.803687507779655,263.3872521950273
268.2758620689655,251.93924561459775,7.077577845131432,7.077577845131437,262.9591607839971
268.9655172413793,251.7239444457628,7.1659131796723425,7.165913179672344,263.4254165076415
269.65517241379314,251.3793440765511,7.015631305981791,7.015631305981791,263.41325539273834
270.3448275862069,251.15271281409835,7.148584219421776,7.148584219421776,263.6513504342066
271.0344827586207,251.80318283607443,7.030987445345871,7.030987445345874,262.8143965834408
271.7241379310345,251.6939307025309,6.89481212545948,6.894812125459482,263.230602520204
272.4137931034483,251.71291231812594,7.011666258295186,7.011666258295184,263.49784039113445
273.1034482758621,251.7772764382549,6.972221871145446,6.972221871145444,263.5688122987545
273.7931034482759,252.1115195759785,6.8896809719831715,6.88968097198317,263.1076870587939
274.48275862068965,252.14038740534903,6.939624135643508,6.939624135643506,262.9936937767721
275.1724137931035,252.46737840305494,6.782765234536524,6.782765234536524,262.57813950214205
275.86206896551727,252.49906307334723,6.695683146505791,6.695683146505793,262.5023328043417
276.55172413793105,252.2389616756185,6.71686445516276,6.716864455162758,262.80096106187113
277.2413793103448,252.40253571538807,6.824997953842859,6.8249979538428605,262.83473920004445
277.93103448275866,252.43917343180536,6.596672949582251,6.596672949582251,263.01689392376863
278.62068965517244,252.79778583885465,7.110349050065182,7.110349050065183,262.6110551441519
279.3103448275862,252.68146011340332,6.693680285127306,6.693680285127304,262.7138222325215
280.0,252.72546652480062,6.891922256732868,6.891922256732869,262.50700936188827
280.68965517241384,252.62754729027776,6.745389358463091,6.745389358463089,262.7281862092574
281.3793103448276,252.98707993127155,6.878038537857101,6.878038537857103,262.2057636269196
282.0689655172414,253.45763233817175,6.700802396293365,6.700802396293365,261.8698104385519
282.7586206896552,253.15473229738694,6.823180701478922,6.823180701478922,262.15074388424557
283.448275862069,253.44929658620842,7.112874229881948,7.112874229881947,261.8675834893787
284.1379310344828,253.39872197678932,6.670363332616616,6.670363332616616,262.2870016417523
284.82758620689657,253.10397296108067,6.6471603403268285,6.6471603403268285,262.4904155871348
285.51724137931035,253.1692737524465,6.645067454707427,6.6450674547074255,261.9496749445564
286.2068965517242,253.036552532757,6.727829135457033,6.727829135457033,261.70039005199726
286.89655172413796,253.50094891503414,6.594492559308063,6.594492559308063,261.76291025631434
287.58620689655174,253.36234531144643,6.696452050925009,6.696452050925011,261.60406003794066
288.2758620689655,253.35794911978695,6.576293847220947,6.576293847220949,261.6539483912561
288.9655172413793,253.93796322077134,6.497695162346341,6.497695162346339,261.2059136143925
289.65517241379314,253.56015653418098,6.428181759784787,6.428181759784787,261.21185149066883
290.3448275862069,253.76808941271685,6.703386523278513,6.703386523278511,260.8364461537401
291.0344827586207,254.37807029674897,6.746323189098565,6.7463231890985655,261.09335734595675
291.7241379310345,253.88881749952913,6.367178061894934,6.367178061894932,261.5343196975147
292.4137931034483,254.30576208258978,6.93268615453127,6.93268615453127,260.5076066898931
293.1034482758621,254.0559120838058,6.6115425533590475,6.611542553359047,261.037300792342
293.7931034482759,254.78142775353925,6.407821140825876,6.407821140825877,260.2449532026994
294.48275862068965,255.198965917098,6.686978665662713,6.686978665662714,260.03550295231224
295.1724137931035,254.772779956614,6.386540556905273,6.386540556905271,260.3281897236644
295.86206896551727,255.2062586912634,6.463971705206798,6.463971705206796,259.86462365891765
296.55172413793105,255.48191871844605,6.160519797214468,6.160519797214468,259.79327778945554
297.2413793103448,254.75422540993858,6.20887226663085,6.20887226663085,259.58768737190303
297.93103448275866,254.97433993935005,6.3319502777401,6.331950277740102,260.02441608024424
298.62068965517244,255.4242955185318,6.390806781805227,6.390806781805229,260.1552515754197
299.3103448275862,255.60985267993055,6.62884324127284,6.628843241272841,260.15337430119854
300.0,256.11683200202475,6.225918963759527,6.225918963759531,259.3221568203674
300.68965517241384,255.9192976883532,6.574738307306009,6.574738307306013,259.25485710355565
301.3793103448276,255.74364546963247,6.369054714998106,6.369054714998106,259.1550404531975
302.0689655172414,255.63613435712747,6.476580975614538,6.4765809756145405,258.9557428910432
302.7586206896552,255.63305909236703,6.5186689192166085,6.518668919216609,259.11179064704646
303.448275862069,256.167624810319,6.187866250821391,6.187866250821394,259.5769703482806
304.1379310344828,256.4054994653653,6.319697840012011,6.3196978400120125,259.255347474104
304.82758620689657,256.05656732221365,6.387281532651052,6.387281532651054,258.3119586154222
305.51724137931035,256.38359369815015,6.381287364840562,6.381287364840559,258.843789157758
306.2068965517242,256.32163192908723,6.510555910868878,6.510555910868878,258.3220187151014
306.89655172413796,256.4533257021789,6.490059151301561,6.490059151301561,258.8060778156426
307.58620689655174,256.02347567841775,6.432027282272557,6.432027282272554,258.41132842937856
308.2758620689655,256.657427811719,6.076549355540367,6.0765493555403705,258.2722525752325
308.9655172413793,256.6026019948094,6.246358371410425,6.246358371410424,258.0474128914596
309.65517241379314,256.39601177032756,6.183069082399104,6.183069082399102,257.9493223732748
310.3448275862069,256.5643039447083,6.17334360892202,6.173343608922018,258.23973443043707
311.0344827586207,256.8556274576803,6.139587260451249,6.139587260451249,257.8454943819863
311.7241379310345,257.01351106166675,6.133563149149349,6.133563149149348,257.8212280126089
312.4137931034483,256.63179121752773,6.070994194311295,6.070994194311293,257.6474763739376
313.1034482758621,256.7080880244072,6.032526467055903,6.032526467055903,256.2437025923659
313.7931034482759,256.4569623127129,6.157008446022634,6.157008446022631,256.46188120207165
314.48275862068965,256.53298486344266,5.870184041675871,5.870184041675868,255.70270640156053
315.1724137931035,256.84601469257973,5.967872392702897,5.967872392702897,257.36703500751685
315.86206896551727,257.39099293826166,6.226087122992218,6.22608712299222,256.96416900332974
316.55172413793105,257.8154421384404,5.992976429303073,5.992976429303072,257.17459082953843
317.2413793103448,257.83538734413776,5.9766110488809145,5.976611048880913,256.5368052946343
317.93103448275866,257.83971565121533,5.78798005316816,5.78798005316816,255.68372295323715
318.62068965517244,257.8679204297289,6.208924166309361,6.208924166309362,256.2873349070057
319.3103448275862,257.8093650673517,5.84208761224656,5.84208761224656,256.3478769948413
320.0,258.05570544241203,6.246114187539571,6.246114187539573,256.2209899811686
320.68965517241384,258.2509107470509,6.082956773662234,6.082956773662232,255.85418875461156
321.3793103448276,258.25902039932885,5.943852624938078,5.943852624938079,255.80734390753085
322.0689655172414,259.245778506096,5.733004278722874,5.7330042787228725,255.50824562750142
322.7586206896552,258.76513256937716,6.025889160400593,6.025889160400594,255.02201207513164
323.448275862069,258.23405719462585,5.845550098442992,5.845550098442994,255.73175241315144
324.1379310344828,258.8142798630927,6.2245061399597175,6.224506139959716,255.8858177851448
324.82758620689657,258.52635667162576,5.8667998947131625,5.8667998947131625,255.4219145190561
325.51724137931035,258.96310586483725,5.9995134297353365,5.999513429735339,254.9035370241349
326.2068965517242,258.69704282518654,5.8263378329654,5.826337832965402,255.3292177814005
326.89655172413796,259.08406551554765,5.805524212690977,5.805524212690975,254.48446404248986
327.58620689655174,259.1204666215481,5.74453622026511,5.74453622026511,254.85139092633347
328.2758620689655,259.30272485467174,5.791766538695431,5.791766538695435,254.88114757870454
328.96551724137936,259.19575013300386,5.712886271811322,5.712886271811322,254.44942324210945
329.65517241379314,259.15227042179845,5.747976787236981,5.747976787236983,255.09920643072178
330.3448275862069,259.27673202108,5.89888104531346,5.898881045313458,254.6010309881477
331.0344827586207,259.6572014337843,5.595963916282538,5.595963916282538,254.78545392312824
331.7241379310345,259.70000928887987,5.889068239352465,5.889068239352465,254.4285813843961
332.4137931034483,259.7454394394162,5.866214293083531,5.866214293083531,254.10480669763297
333.1034482758621,259.8587716140762,5.607450213778186,5.607450213778187,254.10109183931883
333.7931034482759,260.5091073942607,5.736458946996074,5.736458946996074,253.48458837620382
334.48275862068965,260.35098288949155,5.5465855481216755,5.546585548121676,253.4305778796395
335.1724137931035,260.32941681793125,5.455359867597905,5.455359867597905,253.90852026105202
335.86206896551727,260.60532766603467,5.819664241366596,5.8196642413665955,253.30999665484504
336.55172413793105,260.3812580944158,5.445257411845013,5.445257411845014,253.46483260454437
337.2413793103448,260.7208304609257,5.487262488382329,5.487262488382329,252.6561424721188
337.93103448275866,260.7763624510992,5.412733157054784,5.412733157054784,253.60160717091438
338.62068965517244,260.44414574876464,5.132840058406888,5.132840058406891,253.34613202397722
339.3103448275862,260.5537580115938,5.14993434776963,5.14993434776963,252.9272761694327
340.0,260.4571735003284,5.36023804605817,5.360238046058167,253.1883126615344
340.68965517241384,260.7239103539308,5.611445551634421,5.611445551634419,252.47432161655206
341.3793103448276,261.24200016395656,5.492110848152454,5.492110848152456,252.72007110903806
342.0689655172414,260.8301336731638,5.214643485483221,5.214643485483222,252.66385638834157
342.7586206896552,261.5816918833038,5.320301127169526,5.320301127169526,252.41797284789504
343.448275862069,261.4283411878498,5.368857289569331,5.36885728956933,252.4727382195597
344.1379310344828,261.0606291676299,5.274264217246258,5.274264217246258,251.0930344395056
344.82758620689657,261.33362331108736,5.255527170973225,5.255527170973225,252.27545156150643
345.51724137931035,261.4616197221413,5.306491210698281,5.306491210698283,251.80247578070322
346.2068965517242,262.0786599290391,5.343437984005894,5.343437984005895,251.55742102071247
346.89655172413796,261.5100860162056,5.391278998376582,5.391278998376584,251.94932425245668
347.58620689655174,261.71286969279356,5.42036918313847,5.420369183138469,251.50240466126652
348.2758620689655,261.79629891650575,5.428659606502062,5.428659606502062,251.41860212081409
348.96551724137936,262.25572842969086,5.013037995168851,5.013037995168851,251.15491072067266
349.65517241379314,262.1456281989631,5.386598889420983,5.386598889420982,251.31232155336428
350.3448275862069,262.1532240041181,5.396296590859011,5.396296590859009,251.1629616189198
351.0344827586207,262.29167401206655,5.2432123150406404,5.2432123150406404,251.03693060693845
351.72413793103453,262.3612827689458,5.371710128801816,5.371710128801814,250.76441690481988
352.4137931034483,262.2592867485748,5.322291888322734,5.322291888322736,250.99206260288219
353.1034482758621,262.5622781561461,5.2137674544227055,5.213767454422704,250.30531625647785
353.7931034482759,263.0556949714488,5.036225677418469,5.036225677418467,251.11001222154545
354.48275862068965,262.89874271239955,5.297890382811265,5.297890382811265,250.82982038865165
355.1724137931035,263.62750401004274,5.105981712456219,5.105981712456219,250.63081259319245
355.86206896551727,263.71612181001325,5.056459577905492,5.056459577905492,250.66891667628784
356.55172413793105,263.43269711311615,5.105549995237836,5.10554999523784,250.71323114154825
357.2413793103448,263.74646922919186,5.274801634367171,5.27480163436717,250.06827510651252
357.93103448275866,263.68324802033436,5.205960474537663,5.205960474537664,250.47702587405186
358.62068965517244,263.5608775251982,5.415283365108432,5.415283365108432,250.61330816686174
359.3103448275862,263.63019290784126,4.876614025614117,4.876614025614119,250.64324843831218
360.0,264.12311533024246,5.256308121998836,5.256308121998836,249.39364119171847
360.68965517241384,263.96055607193085,5.081123885983833,5.081123885983833,250.34691540128438
361.3793103448276,263.9721783318059,5.048863401450697,5.048863401450697,249.7006994922463
362.0689655172414,264.3121946510364,5.062196543057329,5.062196543057333,249.50032987408588
362.7586206896552,264.12342192197525,5.243004926931751,5.243004926931749,249.17349210163084
363.448275862069,264.35066776217906,5.064630298001714,5.064630298001712,249.21513255979139
364.1379310344828,264.5557558220382,5.068025502730209,5.068025502730207,249.49681863830497
364.82758620689657,264.46113658041645,5.108858053467766,5.108858053467767,249.73415935404444
365.51724137931035,264.4852672655232,5.063075091668474,5.063075091668476,249.4630403992241
366.2068965517242,264.6372484747162,4.925706569358699,4.925706569358695,249.57337082272315
366.89655172413796,264.5380969192453,5.161814930147908,5.161814930147908,249.43076146599014
367.58620689655174,264.83467558150164,4.969397330820526,4.969397330820526,249.04010890689284
368.2758620689655,264.6517350148415,5.261494937445336,5.261494937445338,248.37388594820726
368.96551724137936,264.911635059914,5.050014646146642,5.050014646146643,248.365065626802
369.65517241379314,264.5470561990042,5.071931511959449,5.07193151195945,248.82722145516507
370.3448275862069,264.55751521000116,4.841597981586078,4.841597981586078,249.2654437694514
371.0344827586207,264.6996675959551,5.07329278956103,5.073292789561033,248.68646909252456
371.72413793103453,264.825944193335,4.910560304631975,4.910560304631973,248.3687859471854
372.4137931034483,265.3982625756664,4.91541841832571,4.91541841832571,248.28003716377842
373.1034482758621,265.01608948551626,4.82037381103004,4.820373811030038,247.62777664107816
373.7931034482759,265.43125018992464,4.896995051580298,4.896995051580296,247.90884657133088
374.4827586206897,266.02554354172236,6.132522374878727,6.1325223748787305,249.40961695865946
375.1724137931035,265.37216533717617,4.879460606322744,4.879460606322747,248.31410557310065
375.86206896551727,265.48899034522526,5.065974016884863,5.065974016884865,247.90416390065812
376.55172413793105,265.24538085849275,4.602952656280865,4.602952656280865,248.03082575032005
377.2413793103448,265.82550859604925,4.752960060670621,4.752960060670621,247.96556083882783
377.93103448275866,265.8682249239629,4.759839242428584,4.759839242428586,247.83939044130975
378.62068965517244,265.60724997514404,4.6864761419172,4.6864761419172,248.02852169678465
379.3103448275862,265.9153642815514,4.853666674302856,4.853666674302854,247.64156700273264
380.0,265.9446163861584,4.867996418067459,4.867996418067458,247.61495970449042
380.68965517241384,266.35687209247203,4.899699804559573,4.899699804559571,247.61578398409128
381.3793103448276,265.96446240593303,5.054656670981672,5.054656670981673,247.30158036129515
382.0689655172414,265.91160147989956,4.903923223477779,4.903923223477779,247.81300884193504
382.7586206896552,266.16457681627753,4.82951055429314,4.829510554293142,247.20736289618932
383.448275862069,266.3789028218122,4.782423257405331,4.782423257405332,247.34434648346388
384.1379310344828,266.03821802224536,5.077262924156872,5.077262924156873,247.84680382944114
384.82758620689657,266.68642357462926,4.7679089044149565,4.767908904414958,247.80757550329884
385.51724137931035,266.74360445821344,4.721220639947553,4.721220639947555,247.21849445976747
386.2068965517242,266.7488377535446,4.815727360596976,4.815727360596978,247.77256003600996
386.89655172413796,266.52905757529265,4.841066425986255,4.841066425986257,247.61337319189064
387.58620689655174,266.91791922349313,4.529725002586425,4.529725002586426,247.60846386010513
388.2758620689655,266.7353976402045,4.650683057338047,4.650683057338047,247.38258161316202
388.96551724137936,267.42096738874267,4.442438579095515,4.442438579095513,247.1144536574051
389.65517241379314,266.87003188790504,4.731293265476457,4.731293265476458,246.98729520231947
390.3448275862069,267.16665059562024,4.7313334981801685,4.731333498180168,246.97907821156454
391.0344827586207,267.4569336575888,4.422949096701756,4.422949096701757,246.65934561853024
391.72413793103453,267.0893958048036,4.618147567382912,4.618147567382912,246.66880592051885
392.4137931034483,268.09297349980943,3.0990085722900584,3.0990085722900584,247.32726288185404
393.1034482758621,267.35646230798073,4.441807204253907,4.441807204253905,247.07646338465662
393.7931034482759,267.2369305347737,4.3635175260010195,4.36351752600102,247.16529507648244
394.4827586206897,267.5578531684657,4.474868409863692,4.474868409863694,247.3253378782014
395.1724137931035,267.6003249619466,4.572605937281218,4.572605937281222,246.99169348422322
395.86206896551727,267.85316367711806,4.474299813142485,4.474299813142485,246.78742298647848
396.55172413793105,267.6706344586179,4.5977714885220236,4.597771488522023,245.76939729472414
397.2413793103449,267.57268467749947,4.9150795121603705,4.91507951216037,246.4396235318273
397.93103448275866,267.6948040669087,4.539218513943308,4.539218513943311,245.90877941714015
398.62068965517244,267.3690252365718,4.451500840904091,4.45150084090409,245.62251269812066
399.3103448275862,267.73634372080164,4.700397049710918,4.700397049710918,245.74375556062634
400.0,267.7094377709407,4.451997339149607,4.451997339149608,245.47438188740617
400.68965517241384,268.2398423792181,4.419947268934944,4.419947268934943,246.34892589193944
401.3793103448276,268.31035054354584,4.298258706964528,4.298258706964529,245.81573508982234
402.0689655172414,268.26005681155306,4.421852830100833,4.421852830100833,246.35315074498075
402.7586206896552,268.1576215568216,4.528873182699942,4.528873182699945,245.8327907183713
403.448275862069,268.11068818822156,4.380715367237589,4.38071536723759,245.98934863093118
404.1379310344828,268.2202986920972,4.420334712107476,4.420334712107477,245.7704904386106
404.82758620689657,268.60579202643345,4.030179136289796,4.030179136289795,245.2707380499074
405.51724137931035,271.70964432897404,3.955331673301918,3.9553316733019197,243.18656222613114
406.2068965517242,272.3465101245088,3.9527390117603094,3.9527390117603094,243.2822745369366
406.89655172413796,272.2987617832308,3.814746061872628,3.8147460618726274,243.4395119178224
407.58620689655174,272.3356216826416,3.7944738101179465,3.7944738101179443,243.44479747134622
408.2758620689655,272.2966221714339,3.727720058511579,3.7277200585115797,242.49835032840193
408.96551724137936,272.31154146942663,3.699697173114605,3.6996971731146053,243.0390543365838
409.65517241379314,272.53967998128513,3.848232865887295,3.848232865887296,242.60746515612325
410.3448275862069,272.5223636264765,3.8359262684762387,3.8359262684762387,242.61611725235935
411.0344827586207,272.5005864759819,3.4656077141352535,3.4656077141352553,242.53815044231675
411.72413793103453,272.8630136703764,3.3605511958742054,3.360551195874205,242.8071745432446
412.4137931034483,272.70693637180904,3.6691473811218827,3.6691473811218844,242.98258720268046
413.1034482758621,272.6934842081062,3.7039063511097603,3.7039063511097616,242.94490056073343
413.7931034482759,272.58072526340516,3.629912882832571,3.629912882832571,242.70194717454316
414.4827586206897,272.88549539416226,3.535197820214337,3.535197820214336,242.1910093267452
415.1724137931035,273.1743066041947,3.509998229049797,3.509998229049795,242.63668242896148
415.86206896551727,273.0715909918885,3.484310206657904,3.4843102066579044,242.44469732783972
416.55172413793105,273.2304543419302,3.653481412681633,3.653481412681634,242.40505840444288
417.2413793103449,273.1036793994307,3.604792126422126,3.6047921264221268,243.16092632742405
417.93103448275866,273.5449892199368,4.1023129171781205,4.102312917178122,242.4217708128145
418.62068965517244,273.3845578891288,3.6492020832032543,3.6492020832032535,242.14446738152904
419.3103448275862,273.22283663691906,3.52430587940247,3.524305879402469,242.10778255849
420.0,273.40598175755906,3.4435279169789013,3.4435279169789017,242.45607004706957
420.68965517241384,273.50838288292704,3.494032043200836,3.4940320432008343,242.5196374550884
421.3793103448276,273.29266963158113,3.4269828601712877,3.4269828601712886,242.34673757145418
422.0689655172414,272.8366339205487,3.321363490179318,3.3213634901793188,242.62717460365621
422.7586206896552,273.4786614901841,3.4370377339054063,3.4370377339054055,242.22022335333247
423.448275862069,273.79178451515924,3.535964155735926,3.535964155735925,241.9789206650316
424.1379310344828,273.908613081849,3.5317978723753014,3.531797872375303,242.21671655296524
424.82758620689657,273.77794075449657,3.3770160474936852,3.377016047493688,242.0023352476951
425.51724137931035,273.80155209043306,3.557113270858955,3.557113270858955,241.85247507149006
426.2068965517242,273.95519837241665,3.3182026086886207,3.3182026086886207,242.26326776564315
426.89655172413796,274.2682243826329,3.544387553020242,3.5443875530202438,241.55255443636977
427.58620689655174,273.6491212975397,3.444615176594515,3.444615176594515,241.7055704940795
428.2758620689655,274.3308413870217,3.428762355476146,3.4287623554761453,241.73115595674807
428.96551724137936,273.91039003620523,3.3106422260822113,3.3106422260822117,241.49053577075625
429.65517241379314,274.2016681124025,3.3641216228158286,3.364121622815826,241.08361337636757
430.3448275862069,273.970646406221,3.4181764323636576,3.4181764323636585,241.0203341329574
431.0344827586207,274.56234680032475,3.2849611971491837,3.2849611971491828,241.24255862629698
431.72413793103453,274.6005900196762,3.455827355018077,3.4558273550180774,240.69043640036878
432.4137931034483,274.3780787163731,3.2251370202691145,3.2251370202691145,241.0310192658566
433.1034482758621,274.3236528808192,3.594421908299617,3.5944219082996183,240.7792312479432
433.7931034482759,274.4331577115995,3.289150408040378,3.2891504080403773,240.64901734263432
434.4827586206897,274.7623266095406,3.205404691133234,3.205404691133234,240.90850378963663
435.1724137931035,274.2987901139767,3.3007117452890906,3.3007117452890906,240.8901254185489
435.86206896551727,274.54687733297106,2.9165968961746236,2.9165968961746245,240.57748209224675
436.55172413793105,274.92311716050233,3.293691796902497,3.2936917969024986,240.25187658108953
437.2413793103449,274.86847371662685,3.3033961271847123,3.3033961271847123,239.6569048052891
437.93103448275866,275.20784253896295,3.279354743547982,3.279354743547983,239.89952079430745
438.62068965517244,274.5514168438089,3.1792597995062257,3.1792597995062266,240.0836727931377
439.3103448275862,275.1621215138508,3.160218157571088,3.1602181575710873,239.9926756027168
440.00000000000006,274.85426465278937,3.200325468658621,3.200325468658621,239.84980029218815
440.68965517241384,274.8360118536096,3.218977320460488,3.2189773204604886,239.64239887605038
441.3793103448276,275.373504918777,3.1722550533173943,3.172255053317395,239.63675960663983
442.0689655172414,275.1509058646255,2.998306378523779,2.998306378523778,239.7402476389177
442.7586206896552,275.17654153303715,3.1471111161243037,3.1471111161243037,239.784379446441
443.448275862069,275.54584254709,3.0994464984246757,3.0994464984246743,239.79226759978945
444.1379310344828,275.31978081085265,3.336977368040738,3.336977368040738,240.0332908379944
444.82758620689657,275.0113351989465,3.3251723369154496,3.3251723369154513,240.02741202546684
445.51724137931035,275.5741842203466,3.080041694317296,3.080041694317301,238.98829098802972
446.2068965517242,275.2162699810878,2.943538295225183,2.943538295225183,238.1951146212428
446.89655172413796,275.49937933006953,3.115845767422534,3.1158457674225324,238.4355233702414
447.58620689655174,275.122288085209,2.9388200120567167,2.9388200120567185,238.1467218802197
448.2758620689655,274.92538242977383,2.8631046206992066,2.8631046206992057,238.012503942521
448.96551724137936,275.2309499013894,3.098966543876176,3.098966543876175,237.8409766189293
449.65517241379314,275.2782908546236,3.2053409645438253,3.205340964543824,238.18416498129295
450.3448275862069,275.9084987158763,3.090562118700158,3.090562118700158,238.6420851600633
451.0344827586207,276.05999208811386,3.0778317131052506,3.0778317131052524,238.5444120093203
451.72413793103453,276.161101574387,3.170346728955801,3.1703467289558,238.34627736518303
452.4137931034483,275.9561127869038,2.858323694501805,2.858323694501807,238.19223134523511
453.1034482758621,275.6017820221532,2.9575073736856297,2.957507373685628,238.34536502403535
453.7931034482759,276.12101257338054,2.888419904103456,2.888419904103456,238.1539759623095
454.4827586206897,276.1345252464318,2.852597092001414,2.8525970920014156,238.38742755389111
455.1724137931035,276.2452801684899,2.8763873695077735,2.8763873695077753,238.20790782577583
455.86206896551727,275.95204190988085,2.987484789280569,2.9874847892805683,238.11042890816245
456.55172413793105,276.1160174698475,2.6769608198326056,2.6769608198326087,237.63551196466736
457.2413793103449,276.4991993809777,2.752291958915496,2.7522919589154933,237.2172699143125
457.93103448275866,276.5628320098683,2.83571885709955,2.83571885709955,237.50793540770505
458.62068965517244,276.6436368336635,2.896503737088196,2.896503737088196,237.89634426174084
459.3103448275862,276.4416968544078,2.8302417697916282,2.8302417697916273,237.33358102860913
460.00000000000006,276.76578384056006,2.650981158189061,2.650981158189064,236.9688323240891
460.68965517241384,276.5986404725351,2.9583516530836196,2.958351653083619,237.5351942622498
461.3793103448276,276.50841536728217,2.816624337503944,2.816624337503943,236.86855629564474
462.0689655172414,276.7304589999007,2.6673603788823907,2.667360378882387,236.92118076700007
462.75862068965523,276.8969718910078,2.604208241978585,2.604208241978586,237.23337684109953
463.448275862069,276.88216751480985,2.7646662728079594,2.7646662728079603,237.5590090097273
464.1379310344828,276.6997691344306,2.7686171373963404,2.7686171373963413,237.16365794658904
464.82758620689657,277.0124252161434,2.8208865021855356,2.8208865021855365,236.40425719699164
465.51724137931035,277.2706091855096,2.5207208793645832,2.5207208793645814,236.80102181336136
466.2068965517242,277.201124667289,2.661259142866723,2.661259142866723,236.79808767845387
466.89655172413796,276.74690578404693,2.8951243075892563,2.8951243075892563,237.2164414803509
467.58620689655174,276.9548799771023,2.666197903839423,2.6661979038394223,236.6155554069545
468.2758620689655,277.07879907038165,2.6164864435962314,2.6164864435962314,236.62829361848824
468.96551724137936,277.4135591161937,2.572406813096512,2.5724068130965136,236.3002060833078
469.65517241379314,277.4808095694061,2.733572553351882,2.7335725533518844,236.17105018200095
470.3448275862069,277.6142490363384,2.689368716199862,2.6893687161998603,236.45378983035113
471.0344827586207,277.77254688863,2.7615132687538533,2.7615132687538537,236.53170341834073
471.72413793103453,277.5836567224476,2.7311221885779235,2.731122188577923,235.83604682188133
472.4137931034483,277.7978288116834,2.6751101724679076,2.6751101724679036,235.9295447631199
473.1034482758621,277.9956743729739,2.5724636007098667,2.5724636007098645,235.52087339405128
473.7931034482759,277.89029803283915,2.7799966364644413,2.779996636464442,235.53646983104136
474.4827586206897,277.87051465420143,2.591192108960721,2.591192108960723,235.72025356352754
475.1724137931035,277.87039299221937,2.3777000879754633,2.3777000879754615,235.51905865703563
475.86206896551727,277.681770294029,2.6489383863503977,2.6489383863503986,236.01630132089056
476.55172413793105,278.31651463994245,2.6079927317732245,2.6079927317732206,234.88991569029136
477.2413793103449,278.32220957893156,2.544543345517282,2.544543345517282,235.62815732995892
477.93103448275866,278.31022018826934,2.5129975554929302,2.5129975554929316,234.82959790128248
478.62068965517244,278.2661135514644,2.463323093506572,2.4633230935065735,235.54362902627787
479.3103448275862,278.5413867611281,2.418216293095576,2.4182162930955764,235.1890459327834
480.00000000000006,278.46994984005556,2.3492923364261613,2.3492923364261613,235.3777646830753
480.68965517241384,278.22757581046324,2.275329588801556,2.2753295888015557,234.93409194306528
481.3793103448276,278.53311796064844,2.2964166670951305,2.2964166670951314,234.7201352391589
482.0689655172414,278.5870207454131,2.5566668474349754,2.5566668474349745,234.49145790906869
482.75862068965523,279.07627290580086,2.2519581255279943,2.251958125527991,233.91433131478297
483.448275862069,278.8651901844654,2.72035377574009,2.7203537757400893,234.25086977400892
484.1379310344828,278.5546136500259,2.160564448595959,2.160564448595959,234.61193239827796
484.82758620689657,278.79571288182467,2.193165414325953,2.193165414325953,234.3372940546508
485.51724137931035,278.9749805976898,2.2336087121467854,2.2336087121467854,234.7293779678448
486.2068965517242,278.8883129133114,2.251829133754454,2.251829133754454,234.56567952149743
486.89655172413796,279.1686575327827,2.241113946193747,2.2411139461937473,234.24637995655513
487.58620689655174,279.10464220820086,2.368255124072526,2.368255124072526,233.89634177318388
488.2758620689655,279.1890768931454,1.9983026295334136,1.9983026295334136,234.12466319321553
488.96551724137936,279.2886556533308,2.301679002733279,2.3016790027332807,233.43752706427495
489.65517241379314,279.157221626262,2.1578298889030156,2.1578298889030174,233.2559883326011
490.3448275862069,279.4602130517861,2.3978794454136505,2.3978794454136514,233.2241186597251
491.0344827586207,279.2469062931565,2.3089651637109228,2.308965163710922,233.6587354190577
491.72413793103453,279.3409703061614,2.0949529737424615,2.09495297374246,233.69858007195094
492.4137931034483,279.47190011438386,2.086729219601084,2.0867292196010823,233.55462454428917
493.1034482758621,279.72666353440746,2.1594953454431964,2.159495345443197,232.93842276100526
493.7931034482759,279.63287431970133,2.161031746925394,2.1610317469253926,233.1222891969691
494.4827586206897,279.93585366334725,2.1449501245144442,2.144950124514443,233.1186536605265
495.1724137931035,280.0822305800023,2.1186206496747766,2.1186206496747757,232.90001047005924
495.86206896551727,280.01634185538717,2.1120454740162975,2.1120454740162984,233.29321441660457
496.55172413793105,279.69448481659725,2.0516506826817382,2.051650682681739,232.716455606954
497.2413793103449,280.0430950262276,2.1660919903051714,2.166091990305171,232.60939753987216
497.93103448275866,279.40416837959094,1.9267931279086408,1.92679312790864,232.15637705201127
498.62068965517244,279.82757753077556,1.9295897498671648,1.929589749867166,231.94761918039973
499.3103448275862,280.21033792086604,2.160835269497752,2.160835269497753,232.2743684488506
500.00000000000006,280.361846929233,1.8216374911014952,1.8216374911014956,232.4480921031084
500.68965517241384,280.36096052008844,2.0049421555257507,2.0049421555257507,231.7703059129211
501.3793103448276,280.270284823412,1.929005768439108,1.9290057684391064,232.2999058015573
502.0689655172414,280.4180334484983,1.7431076933623288,1.7431076933623297,232.29769342936473
502.75862068965523,280.3643603106297,1.7967262668121058,1.7967262668121062,232.18085894646333
503.448275862069,280.26399445055694,1.892109162023375,1.8921091620233752,231.75566960497713
504.1379310344828,280.3328068817698,1.8760815609575863,1.8760815609575878,231.37232932929828
504.82758620689657,280.76434692913847,1.8648712050074912,1.8648712050074916,231.33084473854
505.5172413793104,280.87356513574656,1.957745037420392,1.957745037420392,230.80683339731308
506.2068965517242,280.6930919288198,1.9253007044229393,1.9253007044229367,231.38884392401548
506.89655172413796,280.7472777603359,2.050044376469763,2.0500443764697645,231.18293127504788
507.58620689655174,280.9072062813311,1.8779161812505716,1.8779161812505702,231.26536057543092
508.2758620689655,281.2362125935156,1.902772755166871,1.9027727551668723,231.0411473016011
508.96551724137936,281.1599895280269,2.0806397164990087,2.0806397164990096,231.12798426450425
509.65517241379314,281.3339689007701,1.9467097852332509,1.9467097852332518,230.71852350850767
510.3448275862069,281.05372913282434,1.7294386919173579,1.7294386919173579,230.97382400987541
511.0344827586207,280.7001696650348,1.8313933422344153,1.831393342234418,230.6756137516345
511.72413793103453,281.01291964464417,1.8531441667605857,1.8531441667605844,230.4298989398832
512.4137931034483,281.0166163554736,1.5545723273474539,1.554572327347453,230.6035093423719
513.1034482758621,281.0645792589111,1.6140378833366866,1.6140378833366866,230.39626466038635
513.7931034482759,281.2262090333373,1.8156856475731677,1.8156856475731686,230.41910740539333
514.4827586206897,281.3793218358164,1.8230931025792871,1.823093102579286,230.23580738413332
515.1724137931035,281.62541319665854,1.9628367013785353,1.962836701378535,230.08493736309669
515.8620689655173,281.78868117436735,1.8629500151507803,1.8629500151507825,229.69284891415876
516.551724137931,281.4901781700694,1.610989165302009,1.6109891653020103,229.85065010626954
517.2413793103449,281.50814733520025,1.7372940695062151,1.7372940695062138,229.75456058675547
517.9310344827586,281.8336170378656,1.660362839686504,1.6603628396865031,229.83586359109833
518.6206896551724,282.05940739378065,1.6420727088901625,1.6420727088901637,229.53240063547184
519.3103448275863,282.24722590777344,1.5177209890899042,1.5177209890899033,229.47093794755548
520.0,282.0685605132719,1.5139790231407975,1.5139790231407981,229.43535438829517
520.6896551724138,282.04575920537394,1.5119249154146306,1.5119249154146328,228.90044450600442
521.3793103448277,281.6123786477782,1.4949652874398571,1.494965287439855,229.47820699333946
522.0689655172414,281.79998732863413,1.3914447168057147,1.3914447168057154,229.9420410402341
522.7586206896552,284.23564213547303,0.9068004594341216,0.90680045943412,225.51990381202276
523.448275862069,285.0500494165204,0.8066279666083165,0.8066279666083148,224.18157281410345
524.1379310344828,285.2903885519933,0.38669051274033683,0.386690512740336,224.20162666334323
524.8275862068966,285.06666550343414,0.37735076112621574,0.37735076112621346,224.49951968421033
525.5172413793103,285.36673858736,0.49546763458552884,0.4954676345855271,223.36036590423507
526.2068965517242,285.6085470727396,0.5542920923685274,0.5542920923685262,223.07556701747797
526.896551724138,285.53815140157275,0.5049763196885274,0.5049763196885269,223.60822331220797
527.5862068965517,285.4524952387137,0.6534989305671773,0.653498930567175,223.897719277171
528.2758620689656,285.53042999921547,0.7431409453424688,0.7431409453424699,222.91199484953964
528.9655172413793,285.280951793858,0.4686900326958098,0.4686900326958149,223.17341575836912
529.6551724137931,285.1365944747381,0.41784902706231514,0.4178490270623143,223.61706499517692
530.344827586207,285.69640814868166,0.49133370618693484,0.4913337061869357,223.24825100818938
531.0344827586207,285.8642572559994,0.588596490666235,0.588596490666233,222.0388512126676
531.7241379310345,285.8376212589701,0.45619437642065436,0.45619437642065486,222.94376989568224
532.4137931034483,285.817511965044,0.48732341678604596,0.48732341678604224,222.3375277215203
533.1034482758621,285.84237797486276,0.5716062549991693,0.5716062549991723,222.02979622906156
533.7931034482759,285.91842271099495,0.23667928355860376,0.23667928355860238,222.04960012443183
534.4827586206897,285.99244562267216,0.2199600622148662,0.2199600622148677,222.47619023674247
535.1724137931035,285.6998989319728,0.5515066665612233,0.5515066665612223,221.79878584812744
535.8620689655173,285.89675176406655,0.3800642793910695,0.38006427939106835,221.63664752665224
536.551724137931,286.36512809169244,0.5757743687551345,0.5757743687551337,221.5020996714579
537.2413793103449,285.98186972651627,0.15141975767971813,0.1514197576797208,221.7214668455212
537.9310344827586,286.51251101585683,0.2185700573496996,0.2185700573497005,221.49931804067697
538.6206896551724,285.98976791223305,0.3844826393536421,0.38448263935364435,221.64291780393907
539.3103448275863,286.473767873647,0.39417285266450686,0.39417285266451013,220.89536261754904
540.0,286.1413546680626,0.4491479303878839,0.44914793038788353,221.12196211339557
540.6896551724138,286.505380815363,0.28923453688457557,0.2892345368845755,221.11630043649237
541.3793103448277,286.6216872024056,0.24778009313228572,0.2477800931322833,220.73314327746786
542.0689655172414,286.557993807976,0.366893800481675,0.366893800481673,220.6818714037008
542.7586206896552,286.67261678352924,-0.08122724546191397,-0.08122724546191784,220.72039490032182
543.448275862069,286.6730334093579,0.12996010955765028,0.12996010955765072,220.83227371513087
544.1379310344828,286.76458277124425,0.25006575252247504,0.25006575252247387,220.78422844698989
544.8275862068966,287.05922812730006,0.27508685340577604,0.2750868534057779,220.4664113493078
545.5172413793103,287.0114740056025,0.10762591590562932,0.10762591590562659,220.27986311278394
546.2068965517242,286.71130438403094,0.15340549240150944,0.1534054924015081,220.56071184722398
546.896551724138,287.0857357662894,0.22648702063827278,0.22648702063827128,219.94817896086397
547.5862068965517,287.16039304696955,-0.011899803128672205,-0.01189980312867122,219.8077848025149
548.2758620689656,287.21296676311835,-0.04905582909952522,-0.04905582909952512,219.7612015914241
548.9655172413793,286.8609016791129,0.15139371486202516,0.151393714862032,220.12462208130964
549.6551724137931,287.0414448167797,0.14385849694340874,0.14385849694340885,219.58950839824493
550.344827586207,287.12951720332137,-0.10498907431084221,-0.1049890743108404,219.3973799574598
551.0344827586207,287.30297187129537,0.20855260984041651,0.20855260984041424,220.0947092896416
551.7241379310345,287.1670744015189,0.12406252554836518,0.12406252554836485,219.34675123777052
552.4137931034483,287.4129850725285,0.01557828262882994,0.015578282628829944,219.46209456737722
553.1034482758621,287.6611350230123,0.12913827674660872,0.12913827674661177,219.29558581339654
553.7931034482759,287.5785980244814,-0.19838102994534967,-0.19838102994535117,218.7634069851592
554.4827586206897,287.5235740493854,-0.23476126030093725,-0.23476126030093558,219.4023808244226
555.1724137931035,287.7820694766679,-0.1381368450017434,-0.1381368450017463,218.74133589912648
555.8620689655173,287.9168256653913,-0.26757081227363333,-0.26757081227363155,218.77911775603343
556.551724137931,287.82743652247086,-0.16078821918878808,-0.16078821918878808,218.68935380501142
557.2413793103449,287.9967762355941,-0.29442173100126523,-0.29442173100126867,218.41673815176466
557.9310344827586,288.23482651212163,-0.07544728479187665,-0.075447284791876,218.84859664810276
558.6206896551724,288.0293810666031,0.02684525433304131,0.026845254333040285,218.86449062261286
559.3103448275863,288.17696258366607,-0.36816539533600373,-0.36816539533600506,218.51307826331333
560.0,288.36502770061753,-0.22173546980355477,-0.2217354698035509,218.36238118870153
560.6896551724138,288.479257957527,-0.26502798341689904,-0.26502798341689954,218.51947750091855
561.3793103448277,288.1224654738982,-0.3928864379644939,-0.3928864379644943,218.05807280711025
562.0689655172414,288.267454982595,-0.22800455984636372,-0.2280045598463609,217.84718044165882
562.7586206896552,287.9699147011391,-0.5943879087397608,-0.5943879087397608,218.56091876551707
563.448275862069,288.52679314770666,-0.21308970531860444,-0.2130897053186075,217.4919035198995
564.1379310344828,288.6794264520246,-0.3034295266542995,-0.3034295266543001,217.71979863257224
564.8275862068966,288.9652317483493,-0.5765433946608544,-0.5765433946608527,217.336245051972
565.5172413793103,288.9120549113385,-0.2998985332341027,-0.29989853323410137,217.52976635616162
566.2068965517242,288.4982739635471,-0.44355989873633533,-0.4435598987363358,217.71499987023756
566.896551724138,288.9492696087475,-0.4152107947489878,-0.4152107947489863,217.13139238031854
567.5862068965517,288.8917290988534,-0.3211334061556277,-0.321133406155627,216.81984530476723
568.2758620689656,288.9542785210211,-0.5200083034236113,-0.5200083034236124,216.66799068879163
568.9655172413793,288.63456335195923,-0.6137821892019522,-0.613782189201953,216.83522845834722
569.6551724137931,288.6274149212586,-0.6176334613248191,-0.6176334613248208,217.00673378106856
570.344827586207,289.21985903224396,-0.7642279903000997,-0.7642279903001014,216.97299769112402
571.0344827586207,288.93523456208396,-0.4663410466136889,-0.4663410466136906,216.01070509772808
571.7241379310345,289.03941202540176,-0.6343744366084869,-0.6343744366084868,216.5436237240246
572.4137931034484,289.0725228745981,-0.5476227909000373,-0.5476227909000376,216.37296897051888
573.1034482758621,289.2472601379095,-0.6403417949274256,-0.6403417949274256,215.6988341650839
573.7931034482759,289.55578879732866,-0.5358985201585628,-0.5358985201585601,215.6711730168813
574.4827586206897,289.6242565995086,-0.6744856403547859,-0.6744856403547828,215.48595773346307
575.1724137931035,289.34666381995584,-0.7290859199078625,-0.7290859199078614,215.8630974979202
575.8620689655173,289.2710222448351,-0.6999244753592329,-0.6999244753592326,215.4162712484373
576.551724137931,289.4692711219711,-0.8655254636449352,-0.8655254636449343,215.5530331907061
577.2413793103449,289.7081429205244,-0.5974623108376903,-0.5974623108376915,215.90587480563642
577.9310344827586,289.89083113260403,-0.7314245358606248,-0.7314245358606245,215.4860366067839
578.6206896551724,289.8851460707403,-0.9179392911524601,-0.9179392911524621,215.67003706639957
579.3103448275863,290.1212663836968,-0.7311790507269043,-0.7311790507269066,215.5095719239784
580.0,289.96760004035167,-0.7461529268687734,-0.7461529268687671,215.44795219447144
580.6896551724138,289.9782302360379,-0.8111178701749675,-0.8111178701749654,215.37867343729198
581.3793103448277,290.09783959240224,-0.8926433025231065,-0.8926433025231061,215.32948559977933
582.0689655172414,290.3596141660566,-0.7464790338787336,-0.7464790338787318,214.9279604820284
582.7586206896552,289.79430678088795,-0.9169068492909126,-0.9169068492909113,214.7389961137325
583.448275862069,290.35764577614333,-0.8624149445548275,-0.8624149445548297,214.61589770162007
584.1379310344828,290.4657712413025,-0.8661340974953503,-0.8661340974953499,214.3840887199508
584.8275862068966,290.6836990987228,-0.7873779360823379,-0.7873779360823374,214.18286426970434
585.5172413793103,290.3336150307723,-1.0761333187655864,-1.0761333187655873,214.1646117484213
586.2068965517242,290.68865432488,-1.011915712899714,-1.0119157128997118,214.2785947054071
586.896551724138,290.5721556898346,-1.2081191714341182,-1.208119171434119,214.50552446148978
587.5862068965517,290.7770689948845,-1.027585431896641,-1.027585431896642,214.27338586586563
588.2758620689656,290.55707904148636,-0.9395199093910719,-0.9395199093910714,214.32065954402097
588.9655172413793,290.7934894393876,-0.880720483772065,-0.880720483772064,213.71298137794915
589.6551724137931,290.92059585892343,-0.9698364353601383,-0.9698364353601401,213.82796846541342
590.344827586207,290.6482888529388,-1.0572025906434375,-1.0572025906434368,213.9728259650457
591.0344827586207,290.67590325615845,-1.067398174704236,-1.0673981747042351,213.40784280046404
591.7241379310345,291.0116441814869,-1.141653366150195,-1.141653366150192,213.4471495748859
592.4137931034484,290.5795004197159,-1.1722030470430826,-1.1722030470430826,213.84446498534535
593.1034482758621,290.7374789292734,-0.9747202506638866,-0.9747202506638887,213.42837790981557
593.7931034482759,290.6721863310574,-0.9340149943036433,-0.9340149943036449,212.98004018515158
594.4827586206897,290.97194785547157,-1.2263801623318764,-1.2263801623318755,213.03263423177276
595.1724137931035,291.04883143682673,-1.3631980878251286,-1.3631980878251295,213.38258766903039
595.8620689655173,291.2979804553516,-1.0555380169428439,-1.0555380169428437,213.09814888261155
596.551724137931,290.9350832366852,-1.2208668223648977,-1.2208668223648975,212.63784661096682
597.2413793103449,291.5044560801966,-1.3609806508051796,-1.3609806508051796,212.4571133937156
597.9310344827586,291.38257615942854,-1.1350594077777654,-1.135059407777764,212.39917537874715
598.6206896551724,291.68511007539826,-1.3880556524586258,-1.388055652458624,212.38135946298348
599.3103448275863,291.59059521254625,-1.4538999802754506,-1.4538999802754538,211.96847923591585
600.0,291.9188585607769,-1.4815248229577376,-1.4815248229577376,211.64611411733136
600.6896551724138,291.66303825632684,-1.5126445153279935,-1.5126445153279964,211.89994881799933
601.3793103448277,291.77480584209565,-1.5154984408760064,-1.515498440876002,211.79849500555767
602.0689655172414,291.5824219584776,-1.25251365465365,-1.2525136546536508,210.96549783018492
602.7586206896552,291.97110636877034,-1.3624607205375248,-1.3624607205375243,211.47571462302813
603.448275862069,292.09603857837027,-1.5362522799063436,-1.5362522799063425,211.45824389808394
604.1379310344828,291.91588201791427,-1.467497414177147,-1.4674974141771466,211.34981435910248
604.8275862068966,291.93074167151593,-1.5038255538178302,-1.503825553817833,211.16443073496166
605.5172413793103,292.18865106284596,-1.6008902702884906,-1.6008902702884933,211.5999395876224
606.2068965517242,292.5942429388464,-1.819811234108163,-1.8198112341081611,210.9236596765922
606.896551724138,292.587075822176,-1.441276186047421,-1.4412761860474228,211.05792897636732
607.5862068965517,291.94488168342247,-1.659697606025584,-1.6596976060255806,211.38264978186007
608.2758620689656,293.10242799763984,-1.7100928277158374,-1.7100928277158378,211.79557315568036
608.9655172413793,292.3608618582798,-1.4542795956563037,-1.4542795956563064,211.0164009361675
609.6551724137931,292.3540030075211,-1.7938948169229616,-1.7938948169229625,211.37094407796175
610.344827586207,292.1505290939968,-1.6960324241102505,-1.6960324241102487,210.9957528477837
611.0344827586207,292.3122198079793,-1.821077198334869,-1.8210771983348681,210.84562271429326
611.7241379310345,292.20209727073654,-1.8585950197977483,-1.8585950197977483,210.1372892601413
612.4137931034484,292.91284880209383,-1.632159166155041,-1.6321591661550425,209.960239221077
613.1034482758621,292.8723387689832,-1.6609789812442062,-1.6609789812442044,210.01364829871693
613.7931034482759,292.5711888119803,-1.6802967833808105,-1.6802967833808127,209.81433001225025
614.4827586206897,293.1789370222721,-1.5234220671154879,-1.5234220671154897,208.93550871812664
615.1724137931035,292.6354884569676,-1.6306214978728568,-1.6306214978728621,209.70168863309843
615.8620689655173,292.8474587056149,-1.8210615501261116,-1.821061550126113,209.74554134882845
616.551724137931,293.07594199401626,-1.7833933956802273,-1.783393395680225,209.77913269642838
617.2413793103449,293.15588423621205,-1.9101825031181408,-1.9101825031181416,209.52779473102115
617.9310344827586,292.96729850125286,-1.9660477574365003,-1.966047757436502,209.42950723600214
618.6206896551724,292.9564324694694,-1.703658731555668,-1.7036587315556662,209.33054396740974
619.3103448275863,293.2861487484726,-1.812978792101791,-1.812978792101791,209.53331555637277
620.0,293.4580778788295,-1.836045222265036,-1.8360452222650396,208.96017217279888
620.6896551724138,293.09993304597543,-1.8795567296894493,-1.8795567296894522,208.9888890141815
621.3793103448277,293.3288970107096,-1.894946885866962,-1.8949468858669616,208.69439202958836
622.0689655172414,293.56340824852543,-2.0127412171695633,-2.0127412171695673,208.70049353536766
622.7586206896552,293.2993319658935,-1.9817567255801949,-1.9817567255801931,208.90001034159997
623.448275862069,293.5317175005518,-2.1736989932878346,-2.173698993287833,208.41099910235604
624.1379310344828,293.3779095208596,-2.2086808991451687,-2.2086808991451705,208.8475048549479
624.8275862068966,293.7164597105791,-2.08289796471272,-2.082897964712724,208.21925844977517
625.5172413793103,293.6949160248951,-2.246808269387241,-2.24680826938724,207.55250907322957
626.2068965517242,293.8618067566026,-2.1631037326223357,-2.163103732622335,207.98163227835173
626.896551724138,293.69576037782207,-2.223530753962548,-2.223530753962549,207.48532219340922
627.5862068965517,293.6562659569647,-2.237616321857631,-2.237616321857631,207.77794278872975
628.2758620689656,294.1122176464261,-2.165979282515571,-2.165979282515573,207.49524965754017
628.9655172413793,293.83182952221847,-2.151293884173242,-2.1512938841732456,207.580074167513
629.6551724137931,294.0395074570458,-2.2717566905707014,-2.2717566905707005,207.8355671374474
630.344827586207,293.799370141938,-2.295627167314072,-2.2956271673140725,207.7460046509596
631.0344827586207,294.1623307512023,-2.324741903323068,-2.324741903323067,207.3288081052126
631.7241379310345,294.1056386674496,-2.383117657695404,-2.383117657695404,207.55270208062393
632.4137931034484,293.9691091273827,-2.3107987680369866,-2.310798768036991,207.1016141241196
633.1034482758621,294.208898841443,-2.1478527568371866,-2.1478527568371866,206.55554042991236
633.7931034482759,293.95595867761256,-2.4171962054882714,-2.417196205488269,206.90486068765267
634.4827586206897,294.3328918724359,-2.4004392417856537,-2.4004392417856524,206.9634030626065
635.1724137931035,294.61632911184955,-2.528891965061045,-2.5288919650610437,206.7788425731187
635.8620689655173,294.87201514558194,-2.49592987903311,-2.495929879033108,206.05104180998558
636.551724137931,294.5953331755799,-2.4651075547689616,-2.465107554768965,206.4750894219246
637.2413793103449,295.0589034921514,-2.2497883590416077,-2.249788359041611,206.00480311754086
637.9310344827587,295.19116602332673,-2.3297000627976283,-2.329700062797626,205.88799608137992
638.6206896551724,295.1490407406214,-2.4903931376207384,-2.49039313762074,205.93089244172958
639.3103448275863,295.13599412097153,-2.899674153305307,-2.8996741533053108,206.22860706819145
640.0,294.7831779317789,-2.774671825540731,-2.774671825540731,205.68870848014706
640.6896551724138,294.79368900963163,-2.757878652915175,-2.7578786529151733,205.584938776916
641.3793103448277,295.0271587038235,-2.8293207406526943,-2.8293207406526926,205.50058524904188
642.0689655172414,295.42777791200194,-2.5377074518732776,-2.537707451873276,205.5565989996673
642.7586206896552,295.1036075235452,-2.6990321692713772,-2.6990321692713763,205.6631772552506
643.448275862069,295.3341804327236,-2.5085132464788065,-2.508513246478801,205.74706463329937
644.1379310344828,295.1878361866859,-2.5600760913968865,-2.5600760913968803,205.03219191285265
644.8275862068966,295.21340748020486,-2.674321567022265,-2.6743215670222624,205.83166206361054
645.5172413793103,295.7108437902031,-2.823335683019483,-2.8233356830194776,205.438341827059
646.2068965517242,295.30850217678403,-2.8998333016026114,-2.8998333016026128,204.63905921677699
646.896551724138,295.56461289785085,-2.8467439019412093,-2.846743901941209,205.19003482446126
647.5862068965517,295.62610391665993,-2.680764462592557,-2.680764462592559,204.89925983003172
648.2758620689656,295.5915532393008,-2.7778113213521896,-2.777811321352188,204.8865377202546
648.9655172413793,295.8959686200621,-2.7528770608398254,-2.7528770608398236,205.07166732935835
649.6551724137931,295.6519241814005,-3.102881598215926,-3.102881598215927,204.40448949745004
650.344827586207,295.56210274306414,-3.0905534210598087,-3.090553421059805,204.4171208969192
651.0344827586207,295.7953450948253,-2.8647880836639654,-2.864788083663963,204.120490522362
651.7241379310345,296.01811702665884,-2.9418726220100964,-2.941872622010095,204.42928535844783
652.4137931034484,295.83506982852083,-2.7762529248544667,-2.776252924854465,204.63583945053097
653.1034482758621,296.1247867200244,-2.8505925812288084,-2.8505925812288084,204.35332331462854
653.7931034482759,295.80876665093456,-2.920257763385294,-2.9202577633852975,204.58868308598178
654.4827586206897,296.070759311464,-2.8351303442747025,-2.835130344274705,204.5047194073353
655.1724137931035,295.5551399082611,-2.9763963863575635,-2.9763963863575635,204.67790904329559
655.8620689655173,295.9270608848572,-2.887978788827638,-2.8879787888276405,204.62485181241988
656.551724137931,295.6782260090541,-2.914944587314371,-2.914944587314371,205.09340099654403
657.2413793103449,296.0970131198583,-2.827688919504376,-2.8276889195043706,204.8509177303133
657.9310344827587,295.91100960175265,-3.023230811947349,-3.023230811947351,204.49710681169142
658.6206896551724,296.1108552671078,-2.9122925030736484,-2.912292503073645,204.56335962698276
659.3103448275863,295.9601833277571,-2.895512247618653,-2.895512247618651,204.3357787008383
660.0,296.4138066308179,-3.0638400429196015,-3.0638400429196015,204.29520183596253
