z in mm,sigma xx in mm2,sigma xy in mm2,ysigma yx in mm2,sigma yy in mm2
660.0,278.1449478792432,2.8879776059401663,2.8879776059401654,249.9695323679007
659.3510324483776,269.97558432958624,3.244492776886011,3.2444927768860095,234.62543725689542
658.7020648967551,270.8862722289142,3.4750350056514847,3.4750350056514834,234.60346459223854
658.0530973451328,268.00226287758693,3.121808209326327,3.1218082093263266,229.2248597121678
657.4041297935104,268.54555678624666,3.6209753454039495,3.6209753454039495,230.14622961706863
656.7551622418879,268.462386869004,3.203743725110142,3.203743725110142,230.85339893722886
656.1061946902655,268.71267748020637,3.085994546733767,3.085994546733768,231.53520316102154
655.457227138643,268.8669450714107,3.469285024344543,3.4692850243445443,231.41013079303437
654.8082595870206,268.4431754114003,3.6631771776600823,3.6631771776600828,231.98955996701778
654.1592920353983,268.7699820615126,3.1297183486633005,3.1297183486633005,230.54249143918358
653.5103244837758,268.9146363417108,2.6687525521964277,2.6687525521964264,231.77418403221142
652.8613569321534,268.5723323255614,3.3551154039453115,3.35511540394531,230.3175922486242
652.212389380531,269.71007360477705,3.738425343691711,3.738425343691711,231.0721875660878
651.5634218289085,268.53535854758917,2.974614594959264,2.9746145949592626,230.8878850936241
650.9144542772862,268.802363032405,3.4655752582277275,3.4655752582277275,231.46825282559098
650.2654867256637,268.7386510589608,3.1303556123567495,3.1303556123567495,230.91313991788135
649.6165191740413,268.398799747156,2.7337681857495313,2.7337681857495317,232.49611058161565
648.9675516224189,268.69685664992545,3.5098822021159197,3.5098822021159197,231.27033450534137
648.3185840707964,268.6925154073383,3.0809804305675295,3.080980430567527,231.19770273021857
647.669616519174,269.4395786636677,3.0082879541355307,3.0082879541355316,230.35910501045535
647.0206489675517,269.2600750415496,3.097524974350741,3.097524974350741,231.80597215648913
646.3716814159292,268.90281898764914,2.8825656880916144,2.8825656880916153,230.9268070756738
645.7227138643068,270.6636767350415,5.1067184836852375,5.106718483685239,231.84021112278043
645.0737463126844,268.9790189109342,3.651753727585152,3.651753727585153,231.57680132432367
644.4247787610619,269.24688110646196,3.160448156161501,3.160448156161501,232.83269991943658
643.7758112094396,269.04623186797835,2.919049045425582,2.919049045425583,231.51794680796186
643.1268436578171,270.3587630129225,3.5195860792971265,3.519586079297126,231.43896347439474
642.4778761061947,269.8732262571456,3.1919268404113255,3.1919268404113255,231.7332671289482
641.8289085545723,269.6300212035201,3.225297875678564,3.225297875678564,232.25636196628167
641.1799410029498,270.43410471962994,3.371053357565717,3.3710533575657182,231.389161481442
640.5309734513274,269.18437713326955,2.943802784132487,2.943802784132488,231.83854571432175
639.8820058997051,269.2589369655752,4.306338717309037,4.306338717309036,232.8519002844036
639.2330383480826,269.6129380170567,3.1062395607557347,3.106239560755735,231.6236732402105
638.5840707964602,270.25258316966136,3.0734117209736302,3.0734117209736276,232.06280944725748
637.9351032448377,269.7603299430697,3.2924633815637105,3.2924633815637088,232.31585675512898
637.2861356932153,268.9245416649067,3.3243321280050706,3.3243321280050697,232.72728623753486
636.637168141593,269.6589491676503,3.147771911211492,3.147771911211492,232.08834517887394
635.9882005899705,269.3197460892455,2.8002786983192802,2.8002786983192776,233.11632129944442
635.3392330383481,269.51525377601376,2.4518041106328834,2.4518041106328843,232.02324646845736
634.6902654867257,269.3255882958185,3.3575915296781815,3.3575915296781793,233.19576505822604
634.0412979351032,269.4182575536913,3.200854929671281,3.200854929671281,231.9925559360428
633.3923303834808,270.2314524787034,2.814991464287844,2.8149914642878424,232.535314611886
632.7433628318583,270.3449242539938,3.395962180345664,3.395962180345664,232.44394308683536
632.094395280236,269.30814807254256,2.8568176749445184,2.8568176749445198,234.07510306833876
631.4454277286136,270.6614309502737,2.6957222504091747,2.695722250409174,233.09703770651453
630.7964601769911,270.1695008055563,2.822687883124759,2.82268788312476,233.4092366606559
630.1474926253687,270.5945959319063,2.7595232227612065,2.7595232227612065,232.42352612857542
629.4985250737464,270.1546365518833,3.223909255692089,3.2239092556920896,232.4234694318695
628.8495575221239,270.6555753262027,3.455290270328267,3.4552902703282666,232.98225161756963
628.2005899705015,270.39514777774247,3.0754248527974677,3.0754248527974677,232.7874456917349
627.5516224188791,270.1033040932687,3.0647743244720758,3.0647743244720758,232.80498816758634
626.9026548672566,271.01393383585923,3.191558741704575,3.191558741704575,233.047533702286
626.2536873156342,270.71299878503663,3.0486740691891834,3.0486740691891847,233.3164807441815
625.6047197640117,270.94085075901114,2.8701294532161326,2.8701294532161317,233.25649701090362
624.9557522123894,270.873606974078,3.228178742077002,3.228178742077002,232.94452580828
624.306784660767,270.71648284803706,2.7454212627086947,2.7454212627086956,233.6099803754837
623.6578171091445,270.8766048471415,3.0469346309307843,3.0469346309307856,233.7597277919482
623.0088495575221,270.566750130734,3.154986322353973,3.154986322353971,233.60136965632037
622.3598820058997,270.5153891435649,2.87459937419519,2.87459937419519,233.96745026992494
621.7109144542773,270.3656194446349,3.2739290122683427,3.273929012268342,233.15669578071618
621.0619469026549,270.19440331466177,2.9194819391385285,2.919481939138529,234.11704352667257
620.4129793510324,270.22496143164284,3.0918571554631447,3.0918571554631455,233.4622226103366
619.76401179941,270.3746521420083,2.9309533402975183,2.9309533402975196,233.6220533066959
619.1150442477876,270.71380309362337,3.3226237699423344,3.3226237699423358,234.0893944711718
618.4660766961651,272.42252688481085,3.507773010931057,3.507773010931057,232.348127428009
617.8171091445428,270.3680377482551,2.9729104098204595,2.972910409820459,233.20837333241818
617.1681415929204,270.17566039586427,3.02503221030863,3.025032210308629,234.34960843857263
616.5191740412979,270.2122681628533,2.7466936110294915,2.746693611029493,234.2794418974911
615.8702064896755,270.5178143746223,2.9759520435666333,2.975952043566633,233.8283399542882
615.2212389380531,270.2046653298422,3.3760894711579597,3.376089471157959,234.824967551888
614.5722713864307,270.58311164347845,3.013375931032201,3.0133759310322,233.74065112156333
613.9233038348083,270.8224528018115,2.9534389964623564,2.9534389964623564,234.12807498796846
613.2743362831858,271.07574814377654,2.8645573854554254,2.864557385455426,233.53211226097383
612.6253687315634,270.6733036651705,2.8713261458367394,2.871326145836737,234.67504423788952
611.976401179941,271.1554458087378,3.1524857308461223,3.1524857308461223,235.2245608195746
611.3274336283185,271.36219748670646,2.9254462771815533,2.9254462771815524,235.21334197234304
610.6784660766962,270.6450663712651,2.86515226949028,2.8651522694902813,234.59655925828434
610.0294985250738,271.00563117165683,2.992393042816319,2.992393042816318,235.4605268926527
609.3805309734513,271.6778090968032,3.0759650012769484,3.075965001276949,234.75666876807605
608.7315634218289,271.9206598228323,2.8800124652557324,2.880012465255731,234.1790865787481
608.0825958702064,271.7157653825514,3.1309345725132065,3.1309345725132065,234.89322643131055
607.433628318584,270.95699943437404,2.9077619869139415,2.9077619869139433,236.39799014078324
606.7846607669617,271.0423204787304,2.7608307134719854,2.760830713471985,235.89294116774138
606.1356932153392,271.57147571678934,2.7696810865652095,2.769681086565208,234.983571642807
605.4867256637168,271.7427595822314,3.117612470645055,3.117612470645054,235.4087392435842
604.8377581120944,271.14650266095555,2.9587769826327444,2.9587769826327444,235.79372642219516
604.188790560472,271.57625344003213,2.9775518072513862,2.977551807251386,234.56729193468144
603.5398230088496,270.75045567824276,2.161887200359176,2.161887200359177,236.0106875760671
602.8908554572272,270.95678909427215,2.780554954389653,2.7805549543896526,234.5862723778783
602.2418879056047,271.70519486653046,2.3824377490886217,2.382437749088622,234.7084695822731
601.5929203539823,271.49479477462575,2.7249539535186997,2.724953953518698,234.77604823698854
600.9439528023598,271.0466127184581,2.9687171431503243,2.968717143150326,235.61573951640506
600.2949852507375,271.5912171906608,3.061407047543949,3.061407047543948,236.04976122114124
599.6460176991151,271.698939311434,3.124731521498022,3.1247315214980214,234.70900252619836
598.9970501474926,271.03454892548524,3.116470487078387,3.116470487078389,235.3107407945627
598.3480825958702,271.11861813034665,2.994505008090724,2.9945050080907225,235.33479999665724
597.6991150442478,271.7536938056476,3.022358332763212,3.022358332763211,235.8447377932421
597.0501474926253,271.04850915606124,3.0456476488549407,3.0456476488549424,235.3940644001162
596.401179941003,271.48717975746484,3.0136319270829133,3.0136319270829146,235.30225955359634
595.7522123893805,271.32913419188037,3.100014410088551,3.1000144100885523,235.26876543292613
595.1032448377581,271.3890059257862,2.7454317296950284,2.745431729695029,235.666535308581
594.4542772861357,271.9120057878824,3.1760609934950925,3.176060993495096,235.49514279758287
593.8053097345132,271.82881283395824,2.59905869151962,2.599058691519622,234.92995725119633
593.1563421828909,271.5427137610962,2.947164868968615,2.947164868968616,236.15741659790854
592.5073746312685,271.91531062002105,3.282178504691198,3.282178504691197,235.30993220048686
591.858407079646,272.2212857431624,2.635474658067532,2.635474658067533,234.8951822590272
591.2094395280236,271.88124403450905,2.712705824788368,2.712705824788367,235.41433505869387
590.5604719764012,272.0763767815996,2.9867833484062727,2.986783348406272,235.7376070343161
589.9115044247787,271.80395625036914,2.781034722104559,2.7810347221045606,235.89536265018123
589.2625368731564,272.25680194691716,2.9886704583648753,2.9886704583648744,236.6455719946578
588.6135693215339,272.14076414803066,2.640632690025699,2.6406326900256993,235.1900840977882
587.9646017699115,272.00907261330985,2.6644816982544284,2.66448169825443,235.85376900949177
587.3156342182891,272.16034517741184,2.702972112288034,2.7029721122880335,235.68366434611474
586.6666666666666,272.5308320311152,2.9283974069749545,2.9283974069749554,235.776983592126
586.0176991150443,272.3911816097174,2.9243658294411636,2.924365829441165,237.2199695623583
585.3687315634218,271.5131670180561,2.066332644115392,2.0663326441153917,237.9224003916454
584.7197640117994,272.4489839022262,2.7317717353878535,2.7317717353878526,235.71247300990476
584.070796460177,272.76739925563334,2.6908064546379915,2.690806454637993,236.04870298432846
583.4218289085545,271.8398831422715,2.718528636677327,2.718528636677327,236.49269829525133
582.7728613569321,272.425241964117,2.723441076030587,2.7234410760305874,236.03607280522286
582.1238938053098,271.697729232168,2.7650424233422948,2.765042423342292,236.3481342088276
581.4749262536873,272.0362830340615,2.9394942613651547,2.9394942613651547,236.71990105026487
580.8259587020649,272.5689842248098,3.0742834452898076,3.074283445289807,236.53900013383
580.1769911504425,272.80609632650317,3.350282147523125,3.350282147523126,237.08412131466082
579.52802359882,272.34995054571425,2.7893939715809375,2.789393971580938,235.84283567639062
578.8790560471977,272.36214370785456,3.1252582994407683,3.1252582994407705,236.6584027738162
578.2300884955753,272.6617544249369,3.2466888573881802,3.246688857388179,237.06365010384593
577.5811209439528,272.4780041489774,2.881870962074892,2.881870962074892,236.44212326683754
576.9321533923304,271.9229583936825,3.4794692697888143,3.4794692697888143,236.25153096038778
576.2831858407079,272.2464642492474,2.5094690983994488,2.5094690983994488,236.51616468673052
575.6342182890855,272.17373966529647,2.9162759641523075,2.9162759641523093,237.07140595153882
574.9852507374632,272.3185096256037,3.124109974785117,3.1241099747851155,236.54316092861012
574.3362831858407,273.2805548317845,3.0536712192304747,3.0536712192304742,237.9266785210035
573.6873156342183,272.7606766655023,2.9416129582257646,2.941612958225763,236.92035349546498
573.0383480825958,272.5679414816144,2.8416074300587866,2.8416074300587857,237.2131215670651
572.3893805309734,272.5097423589494,2.9024414283515547,2.9024414283515543,237.3044309556537
571.740412979351,272.980095080975,2.9566262526303078,2.956626252630309,237.88855096544916
571.0914454277286,273.5469199356938,2.8814099527786845,2.8814099527786854,237.13616002909276
570.4424778761062,272.46958231728496,2.7282860906760518,2.72828609067605,237.61857424885528
569.7935103244838,272.65516104299684,3.119634841600872,3.119634841600873,236.31001545788988
569.1445427728613,273.3463163045685,2.9303995613982545,2.930399561398256,237.0891712610967
568.4955752212389,273.0613088952857,3.563903488443359,3.563903488443359,238.2761325538786
567.8466076696166,272.6896837303919,2.663553406929576,2.6635534069295757,237.9645694428179
567.1976401179941,272.7984309886714,2.9502724916653755,2.950272491665376,237.76671213671838
566.5486725663717,272.6499511911897,2.9029113303113023,2.902911330311301,237.3370520508469
565.8997050147493,273.11122997555486,2.7630598375355238,2.763059837535524,236.98802029856532
565.2507374631268,272.4682832362377,3.3455744280777204,3.3455744280777204,237.5117070048217
564.6017699115044,272.7911529164458,3.05175647102458,3.0517564710245813,238.26209647663188
563.952802359882,272.5168609436873,2.920772548587544,2.920772548587544,237.42501139899832
563.3038348082596,272.83556798801294,3.2110734810194517,3.2110734810194503,237.05169482456674
562.6548672566372,273.1292533426533,3.0576191142736033,3.0576191142736033,237.09401509505545
562.0058997050147,273.09952780078146,3.0057714313681605,3.005771431368162,238.02836267543873
561.3569321533923,272.8734039500918,3.2654567591206027,3.2654567591206014,237.60901551359487
560.7079646017698,273.4654004632796,2.7129785530618014,2.7129785530618027,237.44411431509934
560.0589970501475,272.85226434542125,3.236801187550157,3.2368011875501583,237.7581938119868
559.4100294985251,272.6487070188166,2.8866326601064927,2.8866326601064918,238.30996140023956
558.7610619469026,273.31659542345176,2.9956891036323396,2.9956891036323383,237.92796303472932
558.1120943952802,272.7497462580706,2.8069532502424317,2.806953250242431,237.38410395931672
557.4631268436578,272.4052910460716,2.745422018345672,2.7454220183456695,237.99619645117946
556.8141592920354,273.0074067136464,2.3120265882450495,2.312026588245048,237.79972682192087
556.165191740413,273.00696230202556,2.9135019485706817,2.913501948570683,238.79824098915188
555.5162241887906,273.76499079323025,2.9048107569036827,2.9048107569036823,238.11780229758585
554.8672566371681,273.028251100465,3.0477687752784,3.0477687752784,238.275859550495
554.2182890855457,272.9361368072391,2.8217840210933414,2.8217840210933414,237.97966354946675
553.5693215339234,272.79966333229163,2.777334144788852,2.777334144788855,239.01116671781696
552.9203539823009,272.875559139687,2.6742788517845026,2.6742788517845013,237.3164493656912
552.2713864306785,273.2134777754934,2.714309596157701,2.714309596157702,238.0753387775571
551.622418879056,273.2653327816311,2.9970941213827396,2.997094121382741,238.52217452119416
550.9734513274336,273.23231381333824,2.9715885723021898,2.9715885723021898,238.06371043419406
550.3244837758112,273.3830967071364,2.9419089012709017,2.941908901270903,238.0680951152876
549.6755162241888,273.83480319782853,3.151705810961797,3.1517058109617966,238.66512601717048
549.0265486725664,273.5832448023136,3.5344731430465557,3.5344731430465557,239.03387438451088
548.3775811209439,273.19735121118697,2.528608430289164,2.528608430289163,238.32517591314186
547.7286135693215,273.4287690052117,2.5507087722292123,2.5507087722292145,238.0966878233649
547.0796460176991,273.3813362423951,2.3585931386521444,2.3585931386521457,237.99372341122861
546.4306784660766,273.95596625898247,2.9796602240755012,2.979660224075502,238.05638922804602
545.7817109144543,273.6703370112463,2.798418434517633,2.7984184345176333,238.49351661191815
545.1327433628319,273.3578422364276,2.634828049264996,2.6348280492649954,238.494130649543
544.4837758112094,273.46796519581477,2.871510650127484,2.871510650127483,238.89418004395725
543.834808259587,273.6474099542504,2.9655295809731523,2.9655295809731514,238.27189309074203
543.1858407079646,273.2550336213766,2.575563031577771,2.575563031577769,239.61031419310052
542.5368731563422,273.7617952133022,2.938780479952956,2.938780479952956,238.45591997942768
541.8879056047198,273.5417992234081,2.8155547377634282,2.815554737763429,239.30077138760785
541.2389380530974,273.63180125762455,3.062740413684123,3.062740413684124,238.81930631195794
540.5899705014749,274.0260537238316,2.919398352909055,2.919398352909056,239.04994464565956
539.9410029498525,273.4129538602695,3.0714108730104543,3.071410873010455,239.26240923317494
539.29203539823,274.4102856507755,2.865325527908228,2.8653255279082273,238.57419632495552
538.6430678466077,273.6650791724313,2.9428737267666576,2.942873726766656,239.14993344383652
537.9941002949853,273.51082514321,3.057009040059483,3.057009040059483,239.6049056319329
537.3451327433628,273.6160420098196,2.7732922935960587,2.7732922935960587,239.03940711100245
536.6961651917404,273.8110582587601,2.951041039631145,2.951041039631145,239.39995403644124
536.0471976401179,273.4888010233082,2.423663327888266,2.423663327888266,239.03929148537003
535.3982300884956,273.92525223372917,2.5951099202651866,2.5951099202651875,239.01871152772532
534.7492625368732,273.94883150160314,2.4973849772434717,2.497384977243474,239.50813717444146
534.1002949852507,273.98029396607024,2.860418859408076,2.8604188594080764,239.68693863916278
533.4513274336283,273.44852616829525,2.8504693277346087,2.850469327734608,239.0311406952309
532.8023598820059,273.46974415557514,3.300556341902202,3.3005563419022015,239.2889254778827
532.1533923303834,273.6903028397941,3.1069057389844397,3.10690573898444,238.33042405828283
531.5044247787611,273.78111961938623,2.798265076938515,2.7982650769385145,238.72879947188534
530.8554572271387,273.96197587811787,2.848639627992419,2.8486396279924175,239.29637084804415
530.2064896755162,273.7145222095118,3.145784418531765,3.145784418531765,239.70911850156855
529.5575221238938,274.29181496998666,2.75833451711117,2.7583345171111704,238.46810394896704
528.9085545722714,273.5915981316122,2.8464591072187124,2.8464591072187115,239.39663644982036
528.259587020649,273.82016844544006,3.2484588619936976,3.2484588619936963,239.08680543498545
527.6106194690266,273.67982649900733,3.0051869059761827,3.0051869059761827,239.92903247988949
526.9616519174041,273.98081614805875,2.8928581470376615,2.8928581470376624,239.20257436821512
526.3126843657817,274.0466720747708,3.100136731648976,3.100136731648975,239.77862529226294
525.6637168141592,274.45933227023886,3.046218610300053,3.0462186103000537,238.6128497880787
525.0147492625368,274.0756647881572,2.8964834986159667,2.8964834986159653,239.76074227750505
524.3657817109145,273.51382474831524,2.8066178735593947,2.8066178735593947,240.13367477059523
523.716814159292,274.0665732357197,3.3390673528477204,3.33906735284772,240.3579400990711
523.0678466076696,273.4171995971175,2.9672533805490384,2.967253380549037,240.03729745349182
522.4188790560472,273.69355318699985,2.9927886581347947,2.9927886581347933,238.80477117964085
521.7699115044247,273.91322649265516,2.839082613359778,2.8390826133597797,240.64353081656884
521.1209439528023,274.0271313477542,3.0568915798120244,3.056891579812024,239.88264491285707
520.47197640118,274.0922265489305,3.106121604789511,3.106121604789511,239.48027273642975
519.8230088495575,273.91792107810755,2.945109082107121,2.9451090821071233,239.1954556286334
519.1740412979351,273.9968887524273,3.442164380797737,3.4421643807977356,240.04583130812517
518.5250737463127,273.85204130043473,2.881428812172421,2.8814288121724223,239.81149670083516
517.8761061946902,273.67499516601345,2.945321933617875,2.9453219336178744,239.6114611631504
517.2271386430679,274.6441389021942,3.2558826451855527,3.25588264518555,239.54380085992733
516.5781710914455,273.3023597497523,2.86548821878281,2.865488218782811,240.75698906933025
515.929203539823,274.1228829421555,2.794712843873947,2.7947128438739486,240.28502513756226
515.2802359882006,274.2134891973341,3.1590879250438,3.1590879250438,240.55743332717034
514.6312684365781,274.2376802965844,3.405399685143685,3.4053996851436836,240.3392535397208
513.9823008849557,274.30382518437636,3.5696559043487315,3.569655904348734,241.17517114219535
513.3333333333333,274.1035633323273,3.0428837037077114,3.0428837037077106,240.56990398257557
512.6843657817109,274.6084503900798,3.0692335773632498,3.069233577363251,240.82463898141307
512.0353982300885,274.23375178740554,3.008556605712974,3.008556605712976,240.78433589601576
511.38643067846607,274.3503652717097,3.214923751111825,3.2149237511118254,240.81750969230302
510.73746312684364,274.6035652787718,2.5454741137520744,2.545474113752076,240.76914670834742
510.08849557522126,274.6382989324459,2.9731266459969508,2.973126645996952,240.2039557089297
509.43952802359877,274.337418230818,2.673913708752602,2.6739137087526026,241.37097860769313
508.7905604719764,274.3636898552644,3.1540353818771836,3.1540353818771836,239.4645169076249
508.14159292035396,274.28982631298874,2.9398295852066454,2.9398295852066463,240.53146057821195
507.4926253687315,274.25747384494116,2.8839788014166685,2.883978801416667,240.5043039320546
506.84365781710915,274.7454666755462,2.7435295482606965,2.7435295482606974,240.22893458507474
506.1946902654867,274.78952965055,3.244421059699559,3.244421059699557,240.7268997340273
505.5457227138643,274.4767721422146,2.6848777807641913,2.6848777807641926,240.99083398098998
504.8967551622419,273.92513827506775,3.100404335080739,3.10040433508074,242.08155462664666
504.24778761061947,274.5130395543535,3.093800424681444,3.093800424681444,242.33111082259674
503.59882005899703,274.76682218721146,2.846583062072733,2.8465830620727326,241.3522228694927
502.94985250737466,274.57052209221064,2.9466011097746274,2.9466011097746265,240.9467125744117
502.30088495575217,274.39618142685924,2.986944747909439,2.9869447479094386,241.80199987825446
501.6519174041298,274.65568259410844,2.9925159967593147,2.9925159967593147,241.8798425853326
501.00294985250736,274.8412230765806,2.9666566758889767,2.9666566758889776,241.13503024726322
500.3539823008849,274.54046643392826,2.934062939029227,2.934062939029226,242.15975832544711
499.70501474926255,274.6060903346557,2.8219812458907376,2.8219812458907354,241.62922613319685
499.0560471976401,275.36883075635876,2.681248998960509,2.6812489989605104,241.121717402781
498.4070796460177,275.0377927472801,3.006899901725626,3.006899901725626,240.80331354271573
497.7581120943953,274.88434545063865,2.9340160791292544,2.9340160791292544,241.64484292459073
497.1091445427728,274.97609935977613,2.823439837017091,2.82343983701709,241.6297852374261
496.46017699115043,275.22496396496274,3.0524415140140926,3.05244151401409,240.90905370002807
495.811209439528,274.8888676513434,3.552874250783539,3.55287425078354,241.63676835790358
495.16224188790557,274.6122719882435,3.02002584318844,3.0200258431884395,241.9407541492499
494.5132743362832,275.33569998328716,3.282407906257613,3.2824079062576126,241.2763145556283
493.86430678466076,274.2349544088659,2.769066018655529,2.7690660186555287,241.72934150547866
493.2153392330383,275.0037524488801,3.295989091462281,3.2959890914622774,240.47845085294125
492.56637168141594,274.6106631743672,3.3953103241736984,3.395310324173698,241.53727984534868
491.9174041297935,276.9286291692166,2.223336462607663,2.223336462607665,240.63374532468163
491.2684365781711,274.8700018118472,2.5191040041000883,2.519104004100089,241.8448158940761
490.6194690265487,275.7323876198109,3.5822978310278253,3.582297831027823,244.16348102930561
489.9705014749262,275.67922725203215,3.0860446805921233,3.086044680592123,242.76502535942905
489.32153392330383,275.9006776351474,3.147468167517443,3.1474681675174443,242.42723345186704
488.6725663716814,275.3595238548645,3.168575787471707,3.168575787471707,243.46569632414548
488.02359882005896,275.4079062688227,3.0901019505488256,3.0901019505488265,243.44819065086912
487.3746312684366,274.88263381795707,2.9487997609871726,2.9487997609871734,243.2149539623786
486.72566371681415,275.7660762361476,2.956922551469741,2.9569225514697397,242.5359470818955
486.0766961651917,275.2540415677279,2.975162925054856,2.975162925054856,242.74256986351267
485.42772861356934,275.1224200384013,3.2213606379484467,3.2213606379484467,243.36148425844618
484.77876106194685,274.79143308799695,2.2637355294208,2.2637355294207997,244.33259725016956
484.1297935103245,275.65408813725935,3.0845966002187466,3.0845966002187466,243.13799750908206
483.48082595870204,275.6178450559524,3.2258843166711104,3.2258843166711073,244.3361088808157
482.8318584070796,275.79730156870534,2.9126558185222766,2.9126558185222757,243.14043890261607
482.18289085545723,275.35730698293065,3.5112678535399495,3.511267853539948,243.52084059059203
481.5339233038348,275.01642517711673,3.049284066758806,3.049284066758806,243.8897588154158
480.88495575221236,275.7220032838168,3.0186621518667676,3.018662151866769,243.23454756737522
480.23598820059,275.58881718302274,3.054618966945293,3.054618966945294,243.34095276670305
479.58702064896755,275.6545039193336,3.1380712461464926,3.1380712461464912,243.42506252154718
478.9380530973451,275.4567792629536,3.422667370727737,3.422667370727737,243.18683497220792
478.28908554572274,275.8103967205628,2.758199523965736,2.758199523965736,243.67791019242486
477.64011799410025,275.5518532794911,3.243283701790926,3.243283701790927,243.58853879251419
476.9911504424779,275.87765648496634,3.0633439703739618,3.0633439703739627,243.28440272373854
476.34218289085544,276.0232090383564,3.3543581744989206,3.3543581744989193,242.45565771905984
475.693215339233,275.3661546216595,2.7034636634531193,2.7034636634531197,244.87911266064566
475.04424778761063,275.95342017014815,3.04743201483217,3.0474320148321703,243.63557953338804
474.3952802359882,275.9803336696421,2.9337236348520768,2.933723634852078,242.92632397868965
473.74631268436576,275.7354081439138,3.0918638237795997,3.0918638237795983,243.76771872710705
473.0973451327434,275.64375165065206,2.9907407313053205,2.9907407313053205,243.94454424837423
472.4483775811209,275.78697943081477,3.4135219611212753,3.413521961121279,243.62500397632633
471.7994100294985,275.5074021352238,3.3145955010782684,3.3145955010782684,244.22603342682356
471.1504424778761,275.88659161028795,3.1901171560672075,3.190117156067204,244.260896111314
470.50147492625365,276.11389163656054,3.2955000730999076,3.29550007309991,243.9091907232601
469.8525073746313,276.0706510028904,3.726700028492636,3.726700028492637,243.18640158614366
469.20353982300884,275.42952319901855,3.1092209028525297,3.1092209028525297,243.62166572094534
468.5545722713864,275.7228108355388,3.182882703165871,3.1828827031658706,244.10215006137213
467.905604719764,275.8362615809532,3.2021801675030246,3.202180167503025,243.82132648485987
467.25663716814154,275.9305278351905,3.894988637961737,3.8949886379617387,244.13893169654912
466.60766961651916,275.4865717338842,3.112146538484687,3.1121465384846885,243.21950036874253
465.9587020648968,275.8271479521374,3.5229649365194446,3.5229649365194446,242.8320330446015
465.3097345132743,275.5009507909502,3.6437850736990547,3.6437850736990547,244.1278497380529
464.6607669616519,275.6964522926413,3.50027254266642,3.5002725426664227,243.54194193419892
464.0117994100295,276.56617001628166,3.525197394995446,3.5251973949954456,243.92996044605584
463.36283185840705,275.7201490300242,3.1916705605233453,3.191670560523344,244.41231626934407
462.71386430678467,275.56793818781955,3.163013546467374,3.1630135464673743,243.69588470120914
462.06489675516224,275.98194572231694,2.9901595440262776,2.9901595440262776,243.93161697368507
461.4159292035398,276.42672405229587,3.2114981674174445,3.2114981674174428,244.09329059903
460.7669616519174,276.29479743208606,3.3829193928879486,3.3829193928879486,244.006940591893
460.11799410029494,276.1845616530064,3.210924543608362,3.2109245436083635,244.74684942188813
459.46902654867256,276.05814919289026,2.959344784099763,2.9593447840997618,244.54532922096263
458.8200589970501,276.10905104279834,2.9652483300588455,2.965248330058847,243.87497501822853
458.1710914454277,275.97577336860024,3.437310901070497,3.437310901070494,243.98781595345727
457.5221238938053,276.21888481976845,3.301812301546365,3.301812301546366,244.40519671956764
456.8731563421829,276.3813090074835,3.2157357424253505,3.215735742425351,244.36274776548564
456.22418879056045,275.892739917361,3.058802936693673,3.0588029366936706,244.68742371928738
455.57522123893807,275.9437995089428,3.7115074061200852,3.7115074061200857,244.59182686674157
454.9262536873156,276.0710713746093,3.178524235145259,3.1785242351452596,245.08767194484113
454.2772861356932,275.96866438240573,3.3855635777008906,3.38556357770089,245.07432553597053
453.62831858407077,276.5190058857218,3.279722581291244,3.2797225812912427,244.40984271949148
452.97935103244833,275.9033510701323,3.2021240101452935,3.202124010145292,245.48160249222215
452.33038348082596,275.5426058621317,3.381820926985709,3.381820926985711,244.19314564432105
451.6814159292035,275.9346131470147,3.1898539017336933,3.1898539017336933,244.7307092290466
451.0324483775811,276.2708103416893,3.3179399629226816,3.3179399629226807,244.98029134950588
450.3834808259587,275.85522016015136,3.0859868530424652,3.085986853042464,245.7845780806875
449.7345132743363,276.148004246076,3.0071407687119027,3.007140768711904,244.78686637234367
449.08554572271385,276.55673886185747,2.9266113729744565,2.926611372974456,244.71376862174355
448.43657817109147,276.29116230523596,3.265201561583015,3.265201561583015,244.65652345455743
447.787610619469,275.6482094138324,3.0751220463006717,3.0751220463006717,244.7940340548771
447.1386430678466,276.08430516901444,3.4948038700810526,3.4948038700810504,244.22359156213776
446.48967551622417,276.38885152059567,2.963306736379721,2.9633067363797196,245.21231839951423
445.84070796460173,276.0493310897749,3.1189509848902834,3.1189509848902834,244.91740334587618
445.19174041297936,276.26288060015725,3.0852224786739786,3.0852224786739786,245.0084347210256
444.5427728613569,276.3240847224622,3.186213533329413,3.186213533329412,244.76786870956067
443.8938053097345,276.0236619021441,3.133770723912408,3.1337707239124084,244.94510206033473
443.2448377581121,276.51869502566444,2.9646967594754208,2.9646967594754208,244.8676399417624
442.5958702064896,275.9828406486427,3.1684802657620965,3.1684802657620965,245.01868804720206
441.94690265486724,276.0706545957264,3.1151930722782843,3.1151930722782843,245.10797475876967
441.2979351032448,277.3247178670381,3.1779653446780896,3.177965344678091,246.21736891150948
440.6489675516224,276.26924837120123,3.278729222986534,3.278729222986534,245.16537062143948
440.0,276.19454884071047,3.2848514372472417,3.284851437247243,245.57090889122054
439.35103244837757,276.1058653151126,2.942628067488419,2.94262806748842,245.6691303311729
438.70206489675513,276.9541552472805,3.0254275009780605,3.025427500978064,245.46884489146282
438.05309734513276,276.11029986277566,3.489655878255691,3.489655878255691,246.18392194249438
437.4041297935103,276.27167294862585,2.853607967878182,2.853607967878182,246.2243334908399
436.7551622418879,276.4427697802672,3.3445645937539807,3.3445645937539807,245.70898956953803
436.1061946902655,276.8057462097513,3.2275624825224964,3.2275624825224956,244.9578735450217
435.457227138643,276.8634771687508,3.5005751209487483,3.5005751209487457,245.93165737034715
434.80825958702064,276.2936428864827,3.134426634069684,3.1344266340696816,245.76218620480316
434.1592920353982,276.3218546852882,3.061172904828293,3.061172904828291,245.71751082096034
433.5103244837758,276.3606469728503,3.2819101056739766,3.2819101056739752,246.58589838224378
432.8613569321534,276.4582366141716,2.9945267182624327,2.9945267182624327,245.7306935404507
432.21238938053096,276.16950192043225,3.055291741909365,3.055291741909365,245.5661476703563
431.56342182890853,276.99370677407063,3.0800201165423533,3.0800201165423533,246.33553207265822
430.91445427728615,276.56216156190595,3.198398467693131,3.1983984676931305,244.85819211630877
430.26548672566366,276.5615082544825,2.9624710866079993,2.9624710866079993,245.72260806379597
429.6165191740413,276.72669270038773,3.2416185634896952,3.2416185634896957,245.38097091456146
428.96755162241885,276.6177002273899,3.2894248020255525,3.289424802025554,244.83385700856311
428.3185840707964,276.33919459403216,3.372436731270564,3.3724367312705654,244.39754724216195
427.66961651917404,275.97077421364344,3.174605244109339,3.174605244109339,245.68203514449698
427.0206489675516,276.3780880925778,3.2009833029410446,3.2009833029410446,245.95679397712837
426.3716814159292,276.44145319537364,3.096120548068473,3.096120548068473,246.03660218455596
425.7227138643068,277.1675541241835,2.9554214846138227,2.9554214846138227,245.60015585394353
425.0737463126843,276.6902952005571,3.359044545617505,3.359044545617505,244.92807833480327
424.42477876106193,277.21912814192666,3.365818593545004,3.365818593545004,245.14030174391587
423.77581120943955,276.4703282125694,3.065769369936943,3.06576936993694,246.18420921441768
423.12684365781706,277.2515270036376,3.4337340309118205,3.433734030911821,246.17250447647993
422.4778761061947,276.33900135324365,3.203106171724455,3.2031061717244578,246.75025065011724
421.82890855457225,275.95203038570486,2.9077657860162747,2.9077657860162733,248.2165421319851
421.1799410029498,277.06936586443504,3.2174997756992045,3.217499775699206,246.25163074218693
420.53097345132744,277.1720069610691,2.875558106837208,2.8755581068372087,246.50348377244185
419.882005899705,277.00071994610994,2.9749879863585034,2.9749879863585043,246.16301084168694
419.2330383480826,276.89190644211806,3.18557316578594,3.185573165785941,246.0288652501225
418.5840707964602,277.0576682437256,2.981936135874812,2.9819361358748107,247.21704289119697
417.9351032448377,276.66642048171764,3.079288397921422,3.079288397921421,246.30501448048628
417.28613569321533,276.66073946699504,2.8762518535682005,2.8762518535682005,246.81362438737466
416.6371681415929,277.0144597768824,2.7192606170161584,2.7192606170161597,246.343222525009
415.98820058997046,277.06659944518,2.682348236341228,2.6823482363412268,246.23729722093498
415.3392330383481,276.679753937534,2.5015436080154143,2.5015436080154156,246.33910060908295
414.69026548672565,277.5523469206076,3.222898306861576,3.222898306861576,246.47481577812562
414.0412979351032,277.23685834099905,3.1648417281913037,3.1648417281913024,247.69225089558623
413.39233038348084,277.0813746399849,2.9927813362827638,2.9927813362827638,246.74171328971207
412.74336283185835,277.30104635240264,3.238329360734143,3.238329360734143,246.7648670890735
412.094395280236,277.09203936404447,3.0815247807253883,3.0815247807253874,246.97729021448515
411.44542772861354,276.9190861676118,3.028193612795498,3.028193612795496,246.85940174098943
410.7964601769911,277.2384362699694,3.0468302137760905,3.046830213776089,246.94169953465126
410.1474926253687,277.4283202430581,2.935282199349715,2.9352821993497162,247.59181465426926
409.4985250737463,277.3521626678665,3.2718399627693513,3.27183996276935,246.2260944482107
408.84955752212386,276.90168721632773,3.289513847136287,3.289513847136286,246.55589907077805
408.2005899705015,277.21268860550015,2.680309043115648,2.680309043115648,246.91575334608874
407.55162241887905,277.0765280834919,3.357060940120042,3.357060940120042,247.3036978179631
406.9026548672566,277.2904871676331,3.3841703940554133,3.3841703940554146,247.07574072114954
406.25368731563424,277.0618757159406,2.8010127912653657,2.801012791265366,247.18981434068144
405.60471976401175,276.81015847518586,2.8756184827570967,2.8756184827570967,247.50102105580166
404.95575221238937,277.06981111300684,3.273431975945002,3.2734319759450026,246.67976290557993
404.30678466076694,277.1362274870403,2.8501943055236327,2.8501943055236323,246.72384622532053
403.6578171091445,277.0492461827886,3.002361269605741,3.002361269605741,247.4847072780241
403.0088495575221,277.335648358551,2.5573068247350506,2.5573068247350506,247.68910092440302
402.3598820058997,277.29246886934,3.121060592826193,3.12106059282619,247.27634191381645
401.71091445427726,277.5497788234984,3.0984778585547206,3.0984778585547215,247.59095520357
401.0619469026548,277.7554792204401,3.164235595810835,3.164235595810835,246.91777608348565
400.41297935103245,277.3483110500866,2.8366200734538687,2.8366200734538696,247.43277725975514
399.76401179941,277.31099261727803,3.141036941580787,3.1410369415807864,247.8948305622222
399.1150442477876,277.38841498218085,3.1564721904148394,3.1564721904148394,247.23001393148218
398.46607669616515,277.1969311422159,3.0335800800121517,3.0335800800121557,247.82164960118328
397.81710914454277,277.55286759169684,2.640410619195123,2.640410619195122,248.58001375955288
397.16814159292034,277.68378600201123,2.764627961066554,2.764627961066556,248.04928625937978
396.5191740412979,277.3719732181907,3.153319196478517,3.153319196478518,247.04000416189086
395.8702064896755,277.5364773917746,2.9407569110096357,2.9407569110096343,247.40805974146187
395.2212389380531,277.39193972982554,3.2263477964019125,3.2263477964019134,247.92331409611964
394.57227138643066,277.97863005601783,3.273698453139756,3.2736984531397564,248.10597750165863
393.9233038348082,277.3189018923795,2.8178003196367736,2.8178003196367736,248.88028669933752
393.27433628318585,277.80150182475654,2.8788119892083603,2.8788119892083595,248.42535991836579
392.6253687315634,278.24992377099824,2.8717509215582027,2.8717509215582036,248.06340364447655
391.976401179941,277.9329968679222,2.748422667640213,2.748422667640213,247.8956990406647
391.32743362831854,278.09195055727804,2.7483940526187474,2.7483940526187483,247.82968821348817
390.67846607669617,277.72535404537774,2.844988376517845,2.8449883765178443,247.7637824542606
390.02949852507373,277.6156718786591,2.987674162278089,2.987674162278089,247.68696416734184
389.3805309734513,278.23391181922653,2.8998282835293723,2.8998282835293736,247.45387757093587
388.73156342182887,278.06351997045863,2.908342336940235,2.9083423369402337,247.9762089724633
388.0825958702065,278.32901655400576,3.143834996295071,3.1438349962950722,249.2172139526476
387.43362831858406,277.96968672123256,2.8892250879170454,2.8892250879170454,248.28972474813978
386.7846607669616,278.29274875905,3.0949265946189812,3.0949265946189812,249.28669376926103
386.1356932153392,277.6901896624047,3.239661602792151,3.239661602792151,249.16954793660403
385.4867256637168,277.5417192972013,3.0320153553139697,3.0320153553139697,249.19164345603977
384.8377581120944,277.6385928156183,2.837340480063128,2.837340480063128,249.16264456951788
384.18879056047194,278.321185103588,2.7071385576588773,2.7071385576588773,248.0390182569411
383.5398230088495,277.87088679014255,2.8347728518047317,2.8347728518047295,248.3605754390421
382.89085545722713,278.18095476259043,3.0295412105240134,3.0295412105240134,248.50948311438484
382.2418879056047,277.83303070475824,3.0596444557295532,3.059644455729555,249.58542509901756
381.59292035398227,277.75714029470976,2.9666544359034295,2.9666544359034304,248.76819508696548
380.9439528023599,277.8294547543566,2.9051276242901913,2.9051276242901936,248.79257073618624
380.29498525073745,278.0911627808306,2.915270436803508,2.915270436803509,249.04467949513875
379.646017699115,277.7948400733622,3.42499648867602,3.424996488676021,248.9734896216081
378.9970501474926,277.56021787884873,2.8391495867586656,2.8391495867586634,249.0621359543949
378.3480825958702,277.5188547147194,2.984255687903392,2.984255687903392,249.84014370768264
377.6991150442478,277.8343644572667,3.02010458110826,3.02010458110826,249.25371112170407
377.05014749262534,277.92339607796146,2.9540601810471636,2.9540601810471614,249.38099371740415
376.4011799410029,278.08131455918954,3.0461573121064465,3.0461573121064465,249.1604006607428
375.75221238938053,278.25558271963655,2.8493956167135144,2.8493956167135144,249.15351881324517
375.1032448377581,278.49931870338884,2.819778418987026,2.819778418987025,249.18813811140183
374.45427728613566,278.161888191199,2.792667138374371,2.792667138374371,249.46408159842875
373.80530973451323,277.99841063253643,2.865978989804368,2.865978989804367,249.78209175765875
373.15634218289085,278.05365565818323,3.060408983838517,3.0604089838385162,249.78552208454408
372.5073746312684,278.14414802045746,2.8181579827491676,2.8181579827491694,249.3099398655014
371.858407079646,278.3339282752755,3.1983764425700474,3.198376442570047,249.2169947847938
371.20943952802355,278.39597446853656,3.2701989896987,3.2701989896986965,249.79077763870717
370.5604719764012,278.3531566243203,3.125072518286626,3.125072518286626,249.29052902168453
369.91150442477874,277.894293312928,3.0172336489034692,3.0172336489034692,250.4620243073959
369.2625368731563,277.075675812143,2.7828029323186185,2.78280293231862,250.3307024011455
368.61356932153393,278.47113435033754,3.125473526662227,3.1254735266622276,249.8725544024521
367.9646017699115,278.04176792335346,3.1530942342745885,3.1530942342745893,249.7666500074967
367.31563421828906,278.7440787474551,3.0901459644697233,3.090145964469721,250.0414798511181
366.66666666666663,278.2651758255147,2.805676464979338,2.8056764649793395,249.93217980351898
366.01769911504425,279.3113585138388,2.6917515913180603,2.6917515913180594,250.2305486506722
365.3687315634218,278.60487132800154,3.0671818271352977,3.067181827135299,249.4683052364204
364.7197640117994,278.1057171052077,2.850039377513724,2.8500393775137227,250.19456395952687
364.07079646017695,278.7245320356709,2.701118145958937,2.7011181459589357,250.55362861209008
363.4218289085546,278.4369363122613,2.8841353520621786,2.8841353520621795,250.32396858610133
362.77286135693214,277.8735030529544,3.104342604554791,3.10434260455479,250.17556003397252
362.1238938053097,277.8529569800517,3.0080967537777403,3.00809675377774,250.48124422634243
361.4749262536873,278.30451219132624,3.0633712032044116,3.063371203204412,249.65153846195213
360.8259587020649,278.38593441173487,3.178457826842326,3.178457826842326,249.88272031682337
360.17699115044246,278.48280037166376,3.2106850131132623,3.210685013113261,249.368851543517
359.52802359882,278.81811067226676,2.8699127782730947,2.869912778273095,250.46977832776585
358.8790560471976,278.59302547684865,3.2875509672793144,3.287550967279312,249.9204560177061
358.2300884955752,278.6507876417203,2.9711677807345045,2.9711677807345045,250.7600079279797
357.5811209439528,277.7264927266336,3.235707327885933,3.2357073278859323,252.28802676789263
356.93215339233035,278.922075160729,2.9408594884326495,2.9408594884326495,250.46179489665374
356.2831858407079,279.1338715722069,3.1319179695417008,3.1319179695416985,250.5715472642861
355.63421828908554,278.8966200006552,2.550759306460493,2.5507593064604945,250.3579403572545
354.9852507374631,278.9132003773923,2.8439293671192014,2.8439293671192,250.2748829406892
354.33628318584067,278.58354390953747,2.93944914401684,2.939449144016839,251.43346259442058
353.6873156342183,278.813284158333,2.658770979807442,2.658770979807442,250.49776969621226
353.03834808259586,278.53373786949044,3.2030169559474393,3.2030169559474406,250.77697242742389
352.3893805309734,278.66388643058394,3.0474184334310563,3.0474184334310572,250.78282320570503
351.740412979351,278.36977682482126,3.165346378577086,3.165346378577087,251.42043934279636
351.0914454277286,278.74398101353654,2.981954022056675,2.981954022056676,250.96385893706974
350.4424778761062,279.13668393507726,3.0407999101300174,3.040799910130014,250.41009151856707
349.79351032448375,278.398403105452,2.6892520828145465,2.6892520828145465,250.50795301275053
349.1445427728613,279.11678884037866,3.0571402615799026,3.0571402615799013,250.54733862291087
348.49557522123894,278.61014409877697,3.0232186824717395,3.0232186824717417,250.73244476627067
347.8466076696165,278.8015969061686,3.034668464710323,3.034668464710324,250.34317992453765
347.19764011799407,278.8646633849159,2.848076158875062,2.848076158875062,250.597319872944
346.54867256637164,278.53438015539916,3.086960826038633,3.086960826038631,251.04498891752587
345.89970501474926,278.8179399640089,2.808296263979023,2.8082962639790208,250.45825497142206
345.2507374631268,278.4506059872247,2.1517421824241696,2.151742182424171,252.100266069141
344.6017699115044,278.7279832161206,2.70754054593326,2.707540545933261,251.09054536290148
343.95280235988196,279.206924445482,2.9854880475282837,2.9854880475282815,250.71349605808024
343.3038348082596,278.4069459268509,3.0082687363382625,3.008268736338263,250.50438773551355
342.65486725663715,278.765743903795,3.148997159343239,3.148997159343239,251.0881794398788
342.0058997050147,278.74254911935844,3.2512930027450913,3.2512930027450913,252.17810730034003
341.35693215339234,278.91029485612785,3.0756908200277793,3.075690820027777,251.14668112774802
340.7079646017699,279.48626101383746,3.2598851665637487,3.2598851665637474,250.7400072950755
340.05899705014747,279.56282539967356,2.8200996153014515,2.8200996153014506,251.43300920428163
339.41002949852503,279.1221770434112,2.806470101350316,2.8064701013503157,250.772938663837
338.76106194690266,278.98746574367533,2.839956450270686,2.8399564502706864,251.5443146508524
338.1120943952802,278.9279209872024,3.0368530447469033,3.036853044746905,251.61980056394208
337.4631268436578,279.0752747141636,3.1295751808154697,3.1295751808154697,251.67773476703576
336.81415929203536,279.27063318445545,3.1769734392226483,3.176973439222649,250.46885385759737
336.165191740413,279.6272008802072,3.1588203616183055,3.158820361618306,251.6769233872475
335.51622418879055,278.87057098022586,2.567077184615115,2.5670771846151155,251.29378986780017
334.8672566371681,279.1364275548479,3.0674668193824144,3.067466819382416,251.42853132743386
334.2182890855457,279.0420442223233,2.9179471793252643,2.9179471793252634,250.9785017434306
333.5693215339233,279.0305667288283,2.957591890203323,2.957591890203323,252.0758053979607
332.92035398230087,279.51905660684525,2.927413197336458,2.927413197336458,252.1988898585061
332.27138643067843,279.09991395030306,2.834929477112199,2.8349294771121953,252.04692109279912
331.622418879056,279.3493885605195,2.636862581614273,2.636862581614274,251.67300605722943
330.9734513274336,279.8635307947256,2.836543693064217,2.8365436930642183,251.82403609883983
330.3244837758112,279.6673764072013,2.8555174804875803,2.855517480487581,251.57191119598272
329.67551622418875,279.7153169716449,3.038128337063501,3.038128337063501,251.4124811019789
329.0265486725663,279.4147820941982,2.871542893281872,2.871542893281873,251.62247773284932
328.37758112094394,279.97077014358916,2.861512988152229,2.861512988152229,251.24288696691946
327.7286135693215,279.2127037322421,3.1074293300751483,3.107429330075149,251.44347764292567
327.0796460176991,279.34404178892936,2.7646543927198515,2.7646543927198515,251.96856446149036
326.4306784660767,279.6639461867466,2.9152694814631412,2.9152694814631426,252.27172522017005
325.78171091445427,279.0324970588691,3.2569936747363304,3.2569936747363304,252.00015188241903
325.13274336283183,279.51186142119167,2.6978762077325884,2.697876207732588,251.55360866521679
324.4837758112094,279.560425661164,2.726399345621212,2.7263993456212114,251.8319631634515
323.834808259587,279.0464370347418,3.1220902757433824,3.1220902757433815,252.51473301879017
323.1858407079646,279.11814907044266,2.9342575965415505,2.9342575965415496,252.44554661189056
322.53687315634215,279.41786692771717,3.2866904539867856,3.2866904539867834,251.72653955441706
321.8879056047197,279.3351082492099,3.065571142258882,3.065571142258883,253.0896612339337
321.23893805309734,279.29166850620805,2.8831073952650197,2.8831073952650197,252.60956479507513
320.5899705014749,279.47202857289983,2.888762651982739,2.8887626519827383,252.10105866694292
319.9410029498525,279.69259079510135,2.7917588938516524,2.7917588938516538,252.00925275925925
319.29203539823004,279.7131185822296,2.9436967946830643,2.9436967946830643,252.61841777409495
318.64306784660766,279.3008745170354,2.880753335493447,2.880753335493444,252.94701203987657
317.99410029498523,279.48286951485005,2.4619175411378205,2.4619175411378196,253.1115320771877
317.3451327433628,279.8385276827242,2.63606301752489,2.636063017524889,252.26812576973137
316.69616519174036,279.9504121616967,2.7579812237132693,2.7579812237132693,252.34073177364755
316.047197640118,279.5120586189762,2.725571918843051,2.725571918843051,252.62771809896523
315.39823008849555,279.7144444260514,3.001034431692102,3.0010344316921005,252.72086248483964
314.7492625368731,279.8445978250897,2.725168585420623,2.725168585420623,252.12756154249976
314.1002949852507,279.5809168140067,2.9717373353216576,2.9717373353216563,252.528486676812
313.4513274336283,280.1680000371044,2.7724644305864095,2.7724644305864103,252.07001302610962
312.8023598820059,279.9680669171849,3.1696310376676005,3.1696310376676013,252.72195622126154
312.15339233038344,279.97460781305983,3.062063734686783,3.0620637346867854,253.20520655463417
311.50442477876106,280.17285904013437,2.8442784082777237,2.844278408277726,252.34146529008925
310.85545722713863,279.68399431029434,2.670992131629603,2.670992131629603,252.80564754902645
310.2064896755162,279.8057376093652,2.534996952716792,2.534996952716792,253.30203859732663
309.55752212389376,279.4912816574399,2.9876250828250557,2.9876250828250575,252.82310282905
308.9085545722714,279.8791811323795,2.9593484032996353,2.9593484032996344,252.60055641007284
308.25958702064895,279.7233704295721,2.9766023081913473,2.9766023081913473,252.74183558373917
307.6106194690265,280.1826541950866,2.914343035718784,2.9143430357187854,251.9612501351848
306.9616519174041,280.39187616727526,2.6707493561600053,2.670749356160005,252.94792221633367
306.3126843657817,280.1618337111942,2.889888666344922,2.889888666344923,253.00453734578826
305.6637168141593,279.7736593813654,3.0176634527103094,3.0176634527103094,252.7775677723081
305.01474926253684,280.1592715515915,2.9305409886341116,2.9305409886341116,252.25243332401644
304.3657817109144,279.8362376126864,3.275288901654819,3.2752889016548203,253.23706484573233
303.716814159292,279.5624403243631,3.106944482704588,3.106944482704588,252.797948101722
303.0678466076696,279.89330314724396,2.6842414379442627,2.684241437944265,252.91610300411298
302.41887905604716,279.6293381416115,2.9295825295866758,2.9295825295866766,252.88255021539592
301.7699115044247,279.40007438084996,3.1572124361933867,3.1572124361933875,252.8701606192242
301.12094395280235,279.6403522785801,2.793649545752036,2.7936495457520354,252.39403342425152
300.4719764011799,279.93870159899564,2.8178564081626596,2.8178564081626574,253.12667974052374
299.8230088495575,279.67583704959395,2.917062468378225,2.917062468378226,253.04382625135585
299.1740412979351,279.71259572835396,3.025087595337485,3.0250875953374847,253.11779329292995
298.52507374631267,279.6004226097503,2.775770369677841,2.775770369677841,253.2458952256185
297.87610619469024,279.9886610202496,3.1306774315914634,3.1306774315914647,252.1632074442067
297.2271386430678,280.0703567322585,2.8234517789052007,2.8234517789052025,253.020906941325
296.5781710914454,280.22238928775647,2.9534845430170993,2.953484543017099,253.15579908992535
295.929203539823,279.7817686861759,2.9280151187750767,2.9280151187750776,253.2563219439563
295.28023598820056,279.76396905337486,2.853199375789284,2.853199375789284,252.77542282703254
294.6312684365781,279.99525223877947,2.939014504896812,2.93901450489681,252.85101866030558
293.98230088495575,279.7565628382687,3.061700538594535,3.061700538594535,253.22724114320357
293.3333333333333,279.3805288860494,2.726781086909544,2.726781086909546,254.00509789299159
292.6843657817109,279.54118710945505,2.975533272590089,2.9755332725900905,253.81287520733898
292.03539823008845,279.6445675630112,2.8622628444740017,2.862262844474001,253.4210624051663
291.38643067846607,279.3137414199882,2.2904043938405514,2.2904043938405505,253.8467271597443
290.73746312684364,279.95681022829535,2.9858286561552143,2.9858286561552156,253.18457820638312
290.0884955752212,279.6146607162645,2.8130925734603665,2.813092573460366,254.00260561416323
289.43952802359877,279.92347980733666,2.6650716999726534,2.6650716999726534,253.04438710535632
288.7905604719764,280.1882067268256,3.201396484177895,3.201396484177894,253.15295571373883
288.14159292035396,280.175875503678,2.924802998565921,2.924802998565919,252.79373792924255
287.4926253687315,280.10556886341277,2.9080442870839476,2.9080442870839462,253.3576643503808
286.8436578171091,280.06503217327815,2.7514907198625203,2.7514907198625207,253.55353645794253
286.1946902654867,280.4874154566937,3.227436669978003,3.2274366699780024,253.37654150304485
285.5457227138643,279.86640776992675,2.8241393130113503,2.8241393130113495,253.04215792566555
284.89675516224185,280.0888093284898,2.73856808770522,2.73856808770522,253.9534086526502
284.24778761061947,280.17866490916407,2.8071008409256906,2.8071008409256906,254.09693055703485
283.59882005899703,279.9962648506186,2.762039043794042,2.762039043794042,253.68877632760635
282.9498525073746,280.00887332002833,2.784245544107892,2.7842455441078915,254.0854580888034
282.30088495575217,280.14813083925316,3.0083170174412937,3.008317017441295,253.96894042376985
281.6519174041298,279.9930813061818,2.9295104174699342,2.929510417469932,253.56877925108412
281.00294985250736,280.49330124821785,2.82393158099016,2.82393158099016,254.18625491375647
280.3539823008849,280.1965228710511,2.6479741200518263,2.6479741200518263,254.11554187724005
279.7050147492625,280.6538579335951,2.5744556900425755,2.5744556900425755,254.091726204062
279.0560471976401,280.67801877888695,2.5558760993532275,2.5558760993532275,253.6673582008374
278.4070796460177,280.0661940727482,2.717087228063019,2.7170872280630194,254.12966712256258
277.75811209439524,280.6724890012222,2.8253638420116247,2.8253638420116247,253.748055414311
277.1091445427728,280.471436368811,2.6970960188290976,2.697096018829096,254.351262245088
276.46017699115043,280.18813024468574,3.1771657732394263,3.1771657732394267,254.6966865667003
275.811209439528,280.46819975223934,3.3409601080012505,3.340960108001251,254.51916597056857
275.16224188790557,280.3859766576772,2.687288748922479,2.687288748922479,254.3445467560472
274.51327433628313,280.99294287976016,2.754793665963179,2.754793665963178,254.13050418758135
273.86430678466076,280.20437044254436,2.8751989158311564,2.8751989158311577,253.83653886811902
273.2153392330383,280.91202017703495,2.6947770727604494,2.6947770727604494,254.33146807626227
272.5663716814159,280.56119218203037,3.0398139241662854,3.0398139241662845,254.136728005049
271.9174041297935,280.34263483969187,2.591717571601076,2.5917175716010736,255.58011945189517
271.2684365781711,280.4298980382975,2.9090084546516395,2.9090084546516373,255.10915260836882
270.61946902654864,280.64103201724015,2.899717486052021,2.899717486052019,254.6480769561832
269.9705014749262,280.49963692742557,2.9388050778513723,2.93880507785137,254.5022648313537
269.32153392330383,280.9945349462891,3.002328313189935,3.0023283131899343,254.06943198250306
268.6725663716814,280.59850889423143,3.042328284752314,3.0423282847523145,255.39034966755045
268.02359882005896,280.6112796177348,3.017297363935015,3.017297363935014,254.36997208983982
267.37463126843653,280.9787915936828,2.488822832241743,2.488822832241744,254.0398462980893
266.72566371681415,280.7216908557735,2.794681364998457,2.7946813649984557,255.0060710226956
266.0766961651917,280.93447608155236,3.0964559867148447,3.0964559867148447,254.0844449031812
265.4277286135693,280.83377800791976,2.8899896045113422,2.889989604511343,255.01543270613513
264.77876106194685,280.419428234762,2.8317740988864255,2.831774098886424,254.44613194116903
264.1297935103245,280.74803872575785,2.835345482581541,2.835345482581541,254.67249518172096
263.48082595870204,280.8559912972353,2.8747683487119913,2.874768348711993,254.73370055506544
262.8318584070796,280.6158332297639,3.1260039017777688,3.126003901777768,255.0543316359997
262.1828908554572,280.9522884130873,2.7670494123059926,2.7670494123059917,254.27041590622156
261.5339233038348,280.5994649049603,3.0940205457820973,3.0940205457820973,255.65945199660732
260.88495575221236,281.0066997061649,2.9605917316415025,2.9605917316415025,255.16966244630763
260.23598820058993,280.72985356800876,2.6140295765851556,2.614029576585157,254.5180976060641
259.5870206489675,280.6962729608996,2.853550725063535,2.8535507250635357,254.5709715154735
258.9380530973451,280.49851778173803,2.9102582133769155,2.9102582133769133,254.5394119176852
258.2890855457227,280.47905934693097,3.001289356721895,3.0012893567218923,255.0513642030947
257.64011799410025,280.4686210733437,2.734527722426832,2.7345277224268347,255.23126669025592
256.9911504424779,280.98260072533526,2.868101297572558,2.8681012975725597,254.92706431944507
256.34218289085544,281.1029310405141,2.8329791219073197,2.8329791219073197,254.70142429629803
255.693215339233,280.7844497829871,3.0389643351473192,3.038964335147318,254.54932989931092
255.04424778761057,280.857958597167,3.0803078891961797,3.0803078891961797,254.53536217507673
254.3952802359882,280.8476604350389,2.73164967823055,2.7316496782305526,255.8426012592588
253.74631268436576,280.91344485961383,2.934839812469556,2.934839812469555,254.72403281309226
253.09734513274333,280.79254369653523,2.7233841721957814,2.7233841721957837,255.58791746685694
252.4483775811209,280.98632385089684,2.90814180522511,2.9081418052251107,254.8896131972551
251.79941002949852,281.01666263577687,3.162044837798287,3.1620448377982866,255.85502256816812
251.15044247787608,280.885511542617,2.881754509637785,2.8817545096377852,255.49794878690656
250.50147492625365,280.7248057619709,2.5961214568128774,2.5961214568128788,255.89783476932323
249.85250737463122,281.0671308718366,2.9384519963867444,2.9384519963867444,255.73723359171913
249.20353982300884,280.59757732595807,3.0316876776408326,3.0316876776408317,254.84687349788038
248.5545722713864,281.5167523773396,2.119644123476471,2.1196441234764705,255.75813748514827
247.90560471976397,280.98644557715943,2.960626002508137,2.9606260025081386,255.3042231735779
247.25663716814154,280.9778683599576,3.0906418110771265,3.090641811077126,255.21318941592625
246.60766961651916,281.0132837416245,3.1476428811624153,3.1476428811624153,255.2126169825117
245.95870206489673,281.0850742194565,3.2578810951654096,3.2578810951654056,255.85241806604384
245.3097345132743,280.8492788824218,2.551934732340432,2.551934732340432,255.6105550565412
244.66076696165192,280.6195290630426,2.8284617000137806,2.8284617000137806,256.57387962365584
244.01179941002948,280.6247171700046,2.801159592333892,2.8011595923338954,256.2035440222998
243.36283185840705,281.05183976574057,2.894075706984484,2.894075706984484,255.62242433936711
242.71386430678461,280.73812588456536,2.8913226670967376,2.891322667096738,256.230938041467
242.06489675516224,281.1849748214477,2.908500300709825,2.9085003007098273,255.54609923802604
241.4159292035398,280.88586510840685,2.556530274565254,2.556530274565255,256.7727837782956
240.76696165191737,281.02858814738744,2.926029164485404,2.9260291644854077,256.23352257513864
240.11799410029494,281.3947599354183,2.8897602990054017,2.8897602990054008,255.99320598967273
239.46902654867256,281.2990139137403,3.016507910373806,3.016507910373805,255.77979092341172
238.82005899705013,280.93895536064775,2.7117385600320603,2.7117385600320616,255.84620787467384
238.1710914454277,281.2456506018073,2.6415531997257506,2.6415531997257506,256.38396424810725
237.52212389380526,281.018673785356,2.9731684950135935,2.9731684950135953,255.81734040061005
236.87315634218288,280.82370135064554,2.6893653038894167,2.6893653038894185,255.96804928654552
236.22418879056045,281.1883562893389,2.670024371528286,2.670024371528286,256.1513761676126
235.575221238938,281.4124656294442,2.7598762339966014,2.7598762339966005,256.05494353579445
234.92625368731558,281.37197006062183,2.723342367073552,2.7233423670735513,256.0253862443541
234.2772861356932,281.15010504447156,3.2161030661839263,3.2161030661839267,256.1466724008192
233.62831858407077,280.61577193436284,2.802237763230841,2.802237763230842,257.0087519809346
232.97935103244833,281.18256529090354,2.9394030958034283,2.9394030958034296,256.63791386725995
232.3303834808259,281.2830065172338,2.5714610332301344,2.571461033230135,256.2357110199706
231.68141592920352,281.2175050079557,3.079912923072053,3.0799129230720546,256.1228560502669
231.0324483775811,280.85134881412876,2.7326839695600484,2.7326839695600498,257.1055716975596
230.38348082595866,281.047710518111,2.7683393779013494,2.7683393779013517,256.4073632551421
229.73451327433628,280.97824313638097,3.035443681355183,3.0354436813551806,255.9478532297612
229.08554572271385,281.4014281836731,3.465536686482613,3.465536686482611,255.99432785977746
228.4365781710914,280.7783286665252,3.063122478136132,3.063122478136132,256.22678441555007
227.78761061946898,281.27765388938633,2.7045811320318913,2.7045811320318927,256.52480307720805
227.1386430678466,281.2303145890826,3.0048002322752962,3.0048002322752954,256.30814715207094
226.48967551622417,280.65480064741433,2.8309655780639105,2.830965578063912,256.4260091460809
225.84070796460173,281.4863679478249,2.8347293170241223,2.834729317024124,256.0985123623891
225.1917404129793,281.0757058650435,3.15693475703144,3.15693475703144,255.90723752887337
224.54277286135692,280.8177122902139,2.8395621916061127,2.8395621916061127,256.2201016021138
223.8938053097345,281.53061504699593,2.5340475181649444,2.534047518164943,255.90609947378508
223.24483775811206,281.17577379510806,2.9101075210532565,2.910107521053258,255.88137559875003
222.59587020648962,280.9438182291085,2.8673610952861055,2.8673610952861055,256.50532442819383
221.94690265486724,281.0562194090427,2.5844833332565345,2.5844833332565336,255.9897839493615
221.2979351032448,281.1806072033485,2.9815127511058885,2.9815127511058903,256.2369023657772
220.64896755162238,281.06162644282756,2.925169529120799,2.9251695291208,256.29579206844426
219.99999999999994,281.5761005633291,3.354216052420724,3.354216052420723,256.14525562061147
219.35103244837757,281.0096790294759,2.7447752995000885,2.744775299500087,256.5779721331872
218.70206489675513,281.22986758426777,2.971946448717559,2.9719464487175613,257.53836024080425
218.0530973451327,281.20945386817266,2.9347945102326043,2.934794510232605,256.2930258318596
217.40412979351026,281.35742631948693,3.023797787423221,3.023797787423217,256.77666840189903
216.7551622418879,281.48848519189613,3.154515330426448,3.15451533042645,257.0019091454955
216.10619469026545,281.19116191388014,2.8426054660003,2.8426054660003,256.6093267770131
215.45722713864302,281.1917945484679,3.066598870792699,3.066598870792699,256.76499763901336
214.80825958702064,281.1726707524159,2.670538152680546,2.670538152680547,256.00310876177286
214.1592920353982,281.8982861998409,2.7992038281113443,2.799203828111342,256.10412559468443
213.51032448377578,281.34465685197665,3.116069183811399,3.116069183811398,256.03906572160747
212.86135693215334,281.8033852269838,2.7588695480070555,2.758869548007055,256.716974440434
212.21238938053096,281.47925913579274,2.9970679962305677,2.997067996230569,256.4174846935108
211.56342182890853,281.3946721321296,2.831845903792012,2.8318459037920096,256.81319933314563
210.9144542772861,281.6458222095648,2.500845542792101,2.500845542792102,257.07154624910123
210.26548672566366,280.9807302533033,2.6886907923504073,2.6886907923504086,256.51090851409964
209.6165191740413,281.985725195714,2.881194881380484,2.8811948813804826,256.50769184459
208.96755162241885,281.33776688295643,2.9018414893837674,2.9018414893837665,256.75367457353445
208.31858407079642,281.45687912767363,2.943271779278546,2.943271779278544,256.80086909803856
207.66961651917399,281.41762845404537,2.816197227300205,2.8161972273002065,257.2466190727575
207.0206489675516,281.81873241915986,3.0194258108207395,3.019425810820739,256.3592324623353
206.37168141592917,281.25888767367616,2.851874168018827,2.8518741680188255,256.97960858978337
205.72271386430674,281.840180503722,2.9263957645101892,2.92639576451019,256.844347482645
205.0737463126843,281.47071729746403,3.035419897630905,3.0354198976309035,257.5487187817395
204.42477876106193,281.3882363817236,2.9668314533116322,2.966831453311632,257.4158736484519
203.7758112094395,282.0732389279396,3.188936058401958,3.1889360584019606,256.80537016534356
203.12684365781706,281.9070670489043,2.841611005592117,2.841611005592117,257.2744900885839
202.47787610619469,281.7298543176384,3.1361579007810727,3.1361579007810727,257.20442475364337
201.82890855457225,282.071642015542,2.840383357168631,2.8403833571686294,257.12213878013813
201.17994100294982,281.8563099697402,2.7226444406804315,2.722644440680432,257.54186731076186
200.53097345132738,281.89900881931874,2.831323751692986,2.831323751692985,257.2068815878949
199.882005899705,281.2822027418133,2.7749426583434946,2.7749426583434946,257.0155576888313
199.23303834808257,282.1086129623686,3.2343720501252875,3.2343720501252853,256.6245769334975
198.58407079646014,281.68188669585453,2.7211332555815884,2.7211332555815857,257.1002775402919
197.9351032448377,281.6881617331039,2.987208920884833,2.9872089208848323,257.76021966782446
197.28613569321533,281.68472883248586,2.97008576619466,2.97008576619466,257.11887252185096
196.6371681415929,281.9794268831987,2.9938578097168413,2.9938578097168427,256.5221489816336
195.98820058997046,281.7350333776237,2.4986856947568525,2.4986856947568516,257.8795197718481
195.33923303834803,281.8000549836913,2.715757620919026,2.7157576209190273,257.50431735592144
194.69026548672565,281.3622014875343,3.2403970111070444,3.240397011107042,258.3803109080189
194.04129793510322,282.03943055804143,2.8179205477911027,2.8179205477911027,256.7689838717834
193.39233038348078,281.2994242819645,2.7609924620572177,2.760992462057218,257.9515554650403
192.74336283185835,281.9851959285312,2.5830493415470728,2.583049341547072,257.11744164237825
192.09439528023597,281.9857665311713,3.150110213342822,3.150110213342822,257.2727527076423
191.44542772861354,281.7121413919933,2.973074209837818,2.973074209837819,257.750880122131
190.7964601769911,282.00729151275726,2.8702233961729577,2.8702233961729586,256.9237297333761
190.14749262536867,281.77548689784476,2.778918738967373,2.778918738967373,257.84837584843734
189.4985250737463,282.08555541384266,3.0142840737187946,3.014284073718795,256.7789655172423
188.84955752212386,282.3671984836858,2.4404875468558167,2.4404875468558167,257.3225664580801
188.20058997050143,282.1064226972539,2.8759253454781493,2.8759253454781493,257.6742202260476
187.55162241887905,282.256771607255,3.1311090149453418,3.131109014945343,257.78309868983337
186.90265486725662,281.69799833689285,2.6931889875306405,2.693188987530642,258.2530840885495
186.25368731563418,281.73538503344486,2.86636864289747,2.86636864289747,257.78151998156454
185.60471976401175,281.93882499587806,3.092233717161605,3.092233717161605,257.80622439484256
184.95575221238937,281.99266555413584,2.9930555765040765,2.993055576504078,257.906152347793
184.30678466076694,282.27546076576726,2.794733130531749,2.794733130531749,258.2049055545575
183.6578171091445,282.0309479460988,2.733715259589871,2.733715259589874,257.70154982175575
183.00884955752207,282.10274923832173,2.789705556580562,2.7897055565805653,258.2766651474342
182.3598820058997,282.00615910763554,2.977195604093115,2.9771956040931165,257.6632463906539
181.71091445427726,282.33287875318865,3.204039306762647,3.204039306762647,258.24836409904714
181.06194690265482,282.0619267092782,3.084032359377543,3.0840323593775434,257.4637029010835
180.4129793510324,282.38242680017134,2.946364650271397,2.946364650271399,257.9139346958029
179.76401179941,281.9326640583096,2.5057290413575046,2.5057290413575046,258.04228509343903
179.11504424778758,282.1341986462568,2.6134190682669773,2.6134190682669773,257.74138966832896
178.46607669616515,282.5332753926776,3.0019098143920737,3.0019098143920715,258.43750271047264
177.8171091445427,281.82307510631256,2.7443695080059465,2.744369508005948,257.9341143937647
177.16814159292034,282.1556590627488,2.961180804279034,2.961180804279035,258.78245961262706
176.5191740412979,282.4502047332619,2.8474090933200764,2.8474090933200764,258.4464237697813
175.87020648967547,282.5115915854578,2.9681483229176946,2.9681483229176964,258.12926842692974
175.2212389380531,282.29456328070177,3.089674362964822,3.089674362964822,258.6547456113065
174.57227138643066,282.1076221451568,2.9918996385856125,2.9918996385856107,258.83807263020316
173.92330383480822,282.50728479227246,3.0608861424165577,3.0608861424165554,258.7196715912604
173.2743362831858,282.7223202699955,2.9497318635231213,2.94973186352312,258.68130863678476
172.6253687315634,282.7187011319345,3.0856160666329533,3.0856160666329533,258.69581041628635
171.97640117994098,282.4112906456888,2.733512349186978,2.7335123491869795,258.7084321642163
171.32743362831854,282.58492757211997,2.892796791190197,2.892796791190197,258.5764787091124
170.6784660766961,282.60054880526246,3.0315821965633796,3.0315821965633796,258.2509760411351
170.02949852507373,282.24228108213475,3.296276317888908,3.296276317888907,258.0262598946487
169.3805309734513,283.0330610079568,2.923578427177941,2.9235784271779446,258.47101619073186
168.73156342182887,282.36593845434,2.8590186878925645,2.8590186878925645,258.1091814833265
168.08259587020643,282.52939843674704,2.796283641969778,2.796283641969776,258.52030405717795
167.43362831858406,281.9399282041428,2.730625819693128,2.730625819693127,259.1933450455379
166.78466076696162,282.1405961792377,2.7891225552384347,2.789122555238432,259.0727241592857
166.1356932153392,282.3742200377488,2.9253178532986137,2.925317853298616,258.687071924349
165.48672566371675,282.26283072521596,2.477564753098364,2.477564753098364,259.0437266989413
164.83775811209438,282.40807789035284,2.712678193115436,2.712678193115435,258.7422675105688
164.18879056047194,281.93824233601214,2.535142311502658,2.535142311502658,258.93270427005973
163.5398230088495,281.90864798427174,2.7688913322572315,2.768891332257231,257.9012131588787
162.89085545722708,281.84859193605837,2.9884802244575357,2.9884802244575384,258.3899884303015
162.2418879056047,282.21655248660875,2.796078187387094,2.796078187387093,258.3294274275897
161.59292035398227,282.03298603979084,2.785232368032368,2.7852323680323665,258.7055201963187
160.94395280235983,282.5959983974037,2.711563994898207,2.7115639948982064,258.614746489255
160.29498525073745,282.5858136926963,2.747786794152706,2.747786794152707,258.3364587349294
159.64601769911502,281.88991286835375,2.8165932817206647,2.8165932817206647,259.1219214419861
158.9970501474926,282.31395677195604,2.9412288358292424,2.941228835829241,258.8330557870981
158.34808259587015,282.6987470558403,2.8715400328165623,2.8715400328165614,259.51889802876025
157.69911504424778,283.13818007785926,3.0350982145314918,3.035098214531493,258.9018927420573
157.05014749262534,282.9909552537396,3.1164000277319794,3.116400027731981,259.11134263099
156.4011799410029,282.64494951921426,2.987395776981886,2.987395776981885,258.86621541401104
155.75221238938047,283.04483537519496,2.8554996131591177,2.855499613159118,258.38941871749466
155.1032448377581,282.46525216533325,2.69023604375187,2.69023604375187,258.85792127981756
154.45427728613566,282.96703259342485,2.9690016566437,2.969001656643699,258.2708137085355
153.80530973451323,282.90920178477677,2.9332936507616703,2.9332936507616703,259.13872215203145
153.1563421828908,282.69185135876324,2.9562964122216733,2.9562964122216724,259.4996255721522
152.50737463126842,282.781337053644,2.855383773176594,2.855383773176595,259.49051886513945
151.85840707964599,282.8901180799166,2.7854898608508103,2.785489860850808,258.9895231685676
151.20943952802355,282.8160760796612,3.1241961480027274,3.124196148002725,259.16053376974156
150.56047197640112,283.00009125121545,3.047745127639814,3.047745127639816,258.80476989561055
149.91150442477874,282.39621050503877,3.147135356374644,3.1471353563746463,259.379936500578
149.2625368731563,282.8238597525807,2.8412115666668845,2.841211566666886,259.54480131545535
148.61356932153387,282.94547074812493,3.117791858066959,3.1177918580669544,259.42104182436276
147.9646017699115,282.75523389914906,3.3756067612632923,3.375606761263293,259.80334968729613
147.315634218289,282.8825711060679,2.9902563443469212,2.990256344346918,258.7532877823492
146.66666666666663,282.9288495444473,3.094203422852031,3.0942034228520323,259.1796164957051
146.01769911504425,283.1939983593434,2.992620997686174,2.9926209976861764,259.1002294808306
145.36873156342176,283.25477723783484,2.995087762631504,2.9950877626315076,258.7099431913274
144.71976401179938,282.53570451322776,2.984829653471179,2.984829653471181,259.2187478481425
144.070796460177,282.6794168997036,2.9390661659823456,2.9390661659823447,259.5241924849399
143.42182890855452,282.83076060482034,3.3148328680391024,3.3148328680391,259.6695323339629
142.77286135693214,283.24474369390896,3.038749117994569,3.03874911799457,259.30988531377926
142.12389380530965,282.7880413418243,2.752497442282699,2.752497442282701,259.77761306313937
141.47492625368727,283.1127987348326,2.883546939908193,2.8835469399081943,259.71192188877444
140.8259587020649,283.0593801729139,2.8519976503940367,2.8519976503940354,259.5947463876424
140.1769911504424,282.8322787276608,2.7709419290890986,2.7709419290890986,259.4477310334453
139.52802359882003,282.8468423599467,3.2149466514150817,3.2149466514150826,260.05312279182334
138.87905604719765,282.97232734435073,2.500334441673883,2.500334441673883,260.0822377065267
138.23008849557516,283.03623853765714,2.614296839543967,2.6142968395439707,259.69314406490656
137.58112094395278,282.9266215487029,2.8171662823489214,2.81716628234892,259.4166542957762
136.9321533923303,283.09476960924695,2.6455924560205215,2.6455924560205206,259.55652893377834
136.28318584070792,283.3227047465215,2.9978690828547725,2.9978690828547725,259.56356379042546
135.63421828908554,282.9258774843686,2.864045852963509,2.864045852963509,259.843919606769
134.98525073746305,283.1046475074729,3.0151599514722687,3.0151599514722687,260.1052820778902
134.33628318584067,283.5146377763403,2.9173452274401046,2.9173452274401037,259.9626526219864
133.6873156342183,283.4730304081625,2.823596105758132,2.823596105758131,260.27145143293177
133.0383480825958,283.43467061738255,2.734367597621007,2.7343675976210062,260.0259611522279
132.38938053097343,283.209050576233,2.7090673817125115,2.7090673817125097,260.64105715009725
131.74041297935105,283.0848304042036,2.678925081238667,2.678925081238665,261.00096097760013
131.09144542772856,283.5028791015597,2.9185072885410333,2.9185072885410333,259.6983329741917
130.44247787610618,282.9571063174608,3.068124114880844,3.068124114880845,260.9436297213945
129.7935103244837,283.4960576827355,3.0471248768381365,3.0471248768381365,260.4739729841196
129.1445427728613,283.5376140201436,2.947182747739079,2.947182747739078,260.35943619192
128.49557522123894,283.1802318121082,2.94322930213569,2.9432293021356917,259.73623852615435
127.84660766961645,283.4643024979549,2.9310680691941187,2.9310680691941187,260.2558770379012
127.19764011799407,283.32074355047735,2.970220601941512,2.970220601941511,259.8686497606131
126.54867256637169,283.4043638879141,3.217169266216742,3.2171692662167435,260.3273259342981
125.8997050147492,283.58059625500357,2.7181033772035827,2.7181033772035805,259.76252658749974
125.25073746312682,283.3751883036427,2.8281258689871662,2.8281258689871667,260.2082004717584
124.60176991150433,283.22433196355854,3.15070614877257,3.150706148772569,260.2178099821427
123.95280235988196,283.4885376511401,3.100809334746942,3.1008093347469408,260.48503635175666
123.30383480825958,283.4099305457062,2.9450264658599585,2.945026465859957,260.5393720234628
122.65486725663709,283.76037394700285,2.8286821031695664,2.828682103169568,260.0616561200224
122.00589970501471,283.5495595609741,2.9910647075040044,2.9910647075040067,260.4880720319597
121.35693215339234,283.3154249390133,2.7111994478486148,2.711199447848612,260.10543560008153
120.70796460176985,283.0351279082351,2.931327581836769,2.9313275818367703,260.1746094890746
120.05899705014747,283.2772302413267,3.109435903441789,3.109435903441789,260.1206897515079
119.41002949852509,283.03822173628544,2.7284071387248936,2.7284071387248923,260.82227087927527
118.7610619469026,283.3798646963116,3.007412157201174,3.007412157201173,261.01977749000696
118.11209439528022,283.4157850713435,2.8352248917240717,2.8352248917240694,260.3296741258933
117.46312684365773,283.4234929798645,2.933866798014841,2.9338667980148405,260.5310373369508
116.81415929203536,283.822025214786,2.8255218830609983,2.825521883060997,260.4863378186381
116.16519174041298,283.7617420655804,2.986950972171955,2.9869509721719547,260.62538547076065
115.51622418879049,283.62137502049194,2.832529420448345,2.8325294204483455,259.86495526838956
114.86725663716811,283.8253202757146,3.2921459028833158,3.292145902883315,260.55869950280083
114.21828908554573,284.17157410776355,3.454533205849451,3.454533205849454,260.4300311408039
113.56932153392324,283.6111000431193,2.736626213883047,2.736626213883047,260.9268063196465
112.92035398230087,283.82792537051523,3.1109165074818486,3.1109165074818477,261.0485176722892
112.27138643067838,283.85525040467104,2.901404053078379,2.901404053078381,260.7331806916059
111.622418879056,283.94500263926943,2.9949482644294667,2.9949482644294667,260.5775258610707
110.97345132743362,283.53843150025176,2.957974181169047,2.9579741811690488,261.0774009614285
110.32448377581113,284.425701238404,3.1234455797260043,3.123445579726002,261.9258193588329
109.67551622418875,284.3428297766829,2.8539912356242514,2.8539912356242523,261.70725324817766
109.02654867256638,284.4555860181682,3.2172195245782143,3.217219524578215,261.8196981446147
108.37758112094389,284.24503432046697,2.861128000005708,2.8611280000057056,262.4536442902638
107.72861356932151,284.6218698512232,3.0587463342943026,3.0587463342943026,261.7441415001583
107.07964601769902,284.386348436956,2.9449773432413178,2.9449773432413178,262.29470136832583
106.43067846607664,284.5227559406462,2.994390017464869,2.9943900174648705,262.19395351691577
105.78171091445427,284.6593141930652,2.824256989879318,2.824256989879318,261.7606209641679
105.13274336283177,284.38584370295786,3.01893376098632,3.018933760986321,262.59108142984473
104.4837758112094,284.6478329949819,2.9205262813418233,2.92052628134182,262.708849548254
103.83480825958702,284.84931669495353,3.1394359852761933,3.139435985276191,262.6658982538326
103.18584070796453,284.9591187459551,2.9723909884708943,2.9723909884708943,262.0984521014953
102.53687315634215,284.34898894055635,3.0005282977740904,3.0005282977740886,262.05826628312036
101.88790560471978,284.7133660859268,3.1200686418287806,3.120068641828779,261.82633530699104
101.23893805309729,284.47402347410684,2.8084147210347856,2.8084147210347847,262.42315462291987
100.58997050147491,284.7366615374887,2.7974781872153955,2.7974781872153973,261.98436527810924
99.94100294985242,284.1695701979114,2.756305763304405,2.756305763304403,262.10465382229796
99.29203539823004,284.93524538398066,2.8934931709851774,2.8934931709851766,262.52115418467486
98.64306784660766,284.79701182881917,2.023145034856769,2.023145034856769,262.69478714500906
97.99410029498517,284.4806317821903,3.094551623467716,3.094551623467716,262.97832073289754
97.3451327433628,284.6847147351087,2.9128423189031953,2.9128423189032002,262.8520378458477
96.69616519174042,284.70178916925795,2.8419410850588216,2.841941085058818,262.7745897438996
96.04719764011793,284.85965979146494,2.4680066540726915,2.468006654072693,262.8714581975349
95.39823008849555,284.6331609528617,2.779496021470739,2.779496021470739,263.47260991178797
94.74926253687306,284.8293766637592,2.998630852139756,2.9986308521397538,262.02350295857275
94.10029498525068,284.8742474411615,3.0043314261307583,3.0043314261307583,262.43465691485636
93.45132743362831,284.6001540578369,2.7188653850826507,2.7188653850826494,262.8711319226395
92.80235988200582,284.77441645945436,2.6418823785134364,2.6418823785134378,262.09926227201106
92.15339233038344,284.8986497755184,3.11488761748441,3.114887617484412,262.63997583138746
91.50442477876106,284.57984517595554,3.0111531074361984,3.0111531074361952,263.4642051892616
90.85545722713857,285.07471622985327,2.837248638823071,2.837248638823071,262.6935389301514
90.2064896755162,285.0733759755933,2.643663622402143,2.6436636224021424,263.005768017113
89.55752212389382,284.6278419747836,2.6748770159781916,2.6748770159781916,262.9233985347168
88.90855457227133,284.8821439699943,2.7101154974750217,2.7101154974750217,262.8646115568026
88.25958702064895,285.1874910427639,2.3912513301952845,2.3912513301952854,263.2049718087735
87.61061946902646,284.70522995983345,2.829826746219008,2.829826746219011,263.37991429056524
86.96165191740408,284.77270785495597,2.9375096194150276,2.937509619415028,263.6811744014361
86.3126843657817,284.8049405588263,2.719638252604547,2.719638252604546,262.6654680605762
85.66371681415922,284.85367679480703,2.668994827253187,2.668994827253185,262.7958167959092
85.01474926253684,284.9411500777109,2.8696751449146594,2.8696751449146576,263.8303211534414
84.36578171091446,284.99561843485634,2.5679546771309454,2.5679546771309436,263.3618169155724
83.71681415929197,284.6536695507683,2.641822057796084,2.6418220577960856,263.824110325132
83.0678466076696,284.6622329959407,2.492116959752896,2.492116959752893,262.97002161456106
82.4188790560471,284.8764211912247,2.8772839976770337,2.8772839976770306,263.35638023804074
81.76991150442473,284.8646591356014,2.545315455139284,2.5453154551392827,263.4212950954326
81.12094395280235,284.81489004861817,2.700953302859003,2.700953302859005,263.74777257198105
80.47197640117986,285.08139351768455,2.8466041850585615,2.8466041850585615,263.64777870258285
79.82300884955748,284.3921117897957,2.7104249683669503,2.710424968366955,263.62788503552497
79.1740412979351,285.0095149181619,2.6896401795936264,2.6896401795936256,264.41263671950685
78.52507374631261,285.3904229668268,2.703245696110653,2.7032456961106512,263.7224055877213
77.87610619469024,284.9114989649413,2.6817726371123625,2.6817726371123616,263.4389305468343
77.22713864306786,285.0619219979021,2.856049262785763,2.8560492627857617,264.0381201368242
76.57817109144537,284.96888191364,2.925755340654626,2.925755340654625,264.3595753862143
75.92920353982299,285.3029851280476,2.7986277756630633,2.7986277756630646,263.47299133992254
75.2802359882005,285.11373019314993,2.846815245913746,2.8468152459137475,264.3630712958176
74.63126843657813,285.08553814245425,2.9837175556001387,2.9837175556001387,264.1216624523416
73.98230088495575,285.27160335750193,2.4821250134375594,2.4821250134375594,264.25139752715063
73.33333333333326,285.11332508507235,2.8043952880360354,2.8043952880360354,263.9847771250002
72.68436578171088,285.0376037743159,2.859074975151483,2.859074975151485,264.10620897434524
72.0353982300885,285.0415019357448,2.4357834000093015,2.435783400009303,264.2226302956069
71.38643067846601,285.1042851689166,2.496619438901917,2.496619438901915,263.89670611999986
70.73746312684364,285.3650707400971,2.592208097882151,2.592208097882152,263.9413902903679
70.08849557522115,285.174442032646,2.7750215728689738,2.7750215728689738,263.3745897418571
69.43952802359877,285.2857622903526,2.912511401490139,2.912511401490141,263.58559895332667
68.79056047197639,285.42702856498,2.7760186560127553,2.7760186560127553,263.70511745452217
68.1415929203539,285.34420745625994,2.92993949024536,2.929939490245361,264.28703308936304
67.49262536873152,285.5084003640387,2.6910460522078172,2.6910460522078195,264.1430319047215
66.84365781710915,285.61584469318916,2.590731214314385,2.590731214314385,263.71910797977387
66.19469026548666,285.4848677826941,2.6912162036391,2.691216203639101,263.4478364392411
65.54572271386428,285.0020014154873,2.823205149922668,2.823205149922669,264.08993547034254
64.89675516224179,285.34692249248303,2.5911054131967677,2.5911054131967695,263.75829684578366
64.24778761061941,285.18337439921305,2.644370235068375,2.644370235068376,264.2983588037239
63.598820058997035,285.34209054305154,2.3238238407210963,2.323823840721097,264.07335074404824
62.949852507374544,285.25264519106076,2.7674416286549324,2.767441628654935,264.6929336097498
62.30088495575217,284.8609839758867,2.791294613015823,2.7912946130158254,264.1612115502393
61.65191740412979,285.2295658854608,2.751323617779128,2.751323617779125,263.5939227915005
61.0029498525073,285.4848459005828,2.8167665808702536,2.8167665808702536,264.31167240867535
60.35398230088492,284.8853912269991,2.807586068140321,2.8075860681403193,264.0084344022838
59.705014749262546,285.2988339060931,2.817556437720326,2.817556437720325,264.47553607095494
59.056047197640055,285.38055281552903,2.4792720672060162,2.479272067206017,264.62430477659336
58.40707964601768,285.20454264099544,2.3350283930458398,2.3350283930458415,264.0988644579495
57.75811209439519,285.2217275294934,2.512999059589397,2.5129990595893963,264.5313126449357
57.10914454277281,284.9620397155992,2.441198030980011,2.44119803098001,264.803319370673
56.46017699115043,285.4155515677666,2.6909928260769913,2.6909928260769935,265.082972414985
55.81120943952794,285.25996584075153,2.344856297544833,2.344856297544834,264.5204241712193
55.162241887905566,285.41324853632545,2.560449433175796,2.560449433175798,264.57403253516674
54.51327433628319,285.45714725416696,2.7446757104474755,2.7446757104474764,265.0421402590645
53.8643067846607,285.44371951741755,2.7013629274000457,2.701362927400045,264.35182734030064
53.21533923303832,285.25892037574556,2.870515076080669,2.8705150760806686,264.7868091128284
52.56637168141583,285.364970742628,2.568403872311995,2.5684038723119973,264.4210424029926
51.917404129793454,285.33970351793903,2.5307494955317726,2.530749495531772,265.00871722720046
51.26843657817108,285.24094551566117,2.5276192988539203,2.5276192988539203,264.93155967590525
50.619469026548586,285.51833425996995,2.3957301370296396,2.39573013702964,264.1285500379177
49.97050147492621,284.9251771165485,2.414919853951459,2.4149198539514587,265.80006805477575
49.32153392330383,285.44436446413215,2.724067212194596,2.724067212194599,264.8628729695381
48.67256637168134,285.40391461980334,2.7046714792980673,2.704671479298065,265.4903942752189
48.023598820058965,285.8168658395713,2.555735905941354,2.5557359059413516,265.4544073401328
47.37463126843659,285.4926504001838,2.8416689392069836,2.8416689392069836,265.1251511723318
46.7256637168141,285.39289172746726,2.3973435228198547,2.3973435228198556,265.28878731877745
46.07669616519172,285.2926256848537,2.9880088539610585,2.9880088539610576,265.58731757569205
45.42772861356923,285.54116633760646,2.5129144355083946,2.5129144355083923,264.549792966591
44.77876106194685,285.562365919103,2.6312487063148176,2.631248706314817,264.6266499464656
44.129793510324475,285.50326921126094,2.2784455623124433,2.2784455623124424,265.06231453840985
43.480825958701985,285.7722356742923,2.362105869620296,2.362105869620297,265.6690944566825
42.83185840707961,285.3442807328052,2.3911656005943165,2.3911656005943165,266.5355678895143
42.18289085545723,285.70858710041114,2.69406268540979,2.6940626854097887,265.3086367154798
41.53392330383474,285.3539526659289,2.3665155100473947,2.366515510047393,265.47237163790817
40.88495575221236,285.8465928327215,2.7979264461691375,2.7979264461691398,265.8842674866134
40.23598820058987,285.28628360386165,2.650625015899915,2.6506250158999127,266.8646172360461
39.587020648967496,285.5485960002593,2.5171440414448223,2.51714404144482,266.0276118019625
38.93805309734512,285.6275371107365,2.564559712664174,2.564559712664174,264.93473204623365
38.28908554572263,285.76204276889,2.7465261480008274,2.746526148000825,265.9228851413536
37.64011799410025,285.51571536173395,2.893410030699112,2.8934100306991093,266.0628405040989
36.991150442477874,285.74637703062297,2.630921319686055,2.630921319686054,266.1701016444376
36.34218289085538,285.9623148728906,2.339614060212829,2.339614060212827,265.7971427375411
35.69321533923301,285.5122230813209,2.5248597149612895,2.5248597149612877,266.4970691942031
35.04424778761063,285.3116239387287,2.7519987635217142,2.7519987635217134,266.67478913617623
34.39528023598814,285.6448816411337,2.546528203691192,2.5465282036911927,266.5766792034624
33.74631268436576,285.2196882463558,2.617848215070967,2.617848215070969,266.76548317146404
33.09734513274327,285.5711143193714,2.7745201011263765,2.7745201011263725,266.78022513253705
32.448377581120894,285.82597071159057,2.54325397239722,2.5432539723972183,265.7581804257415
31.799410029498517,285.8617213385139,2.3737752395960032,2.3737752395960023,265.9304312401188
31.150442477876027,285.723649463185,2.49301834480292,2.4930183448029193,265.2941552919913
30.50147492625365,285.48104763529585,2.538640819695249,2.538640819695247,265.9743814362418
29.852507374631273,285.78337371770937,2.7227046437257516,2.7227046437257507,266.24027245838204
29.203539823008782,286.02072559507246,2.6676232807630313,2.6676232807630345,266.25129407466534
28.554572271386405,285.7468669552826,2.64828945936033,2.648289459360331,266.56528795827114
27.905604719763915,285.7556220999316,2.4868808335216266,2.486880833521625,266.417791992043
27.256637168141538,285.94895910849397,2.609173701683699,2.609173701683699,266.55212139238256
26.60766961651916,286.24094856124526,2.440387573845816,2.440387573845818,265.52442702915806
25.95870206489667,286.0792170109993,2.52516372535235,2.52516372535235,265.95816418567136
25.309734513274293,285.6901875822631,2.5021251696561797,2.5021251696561793,266.27846566268045
24.660766961651916,286.42230326899056,2.193793240656721,2.19379324065672,266.1443147375438
24.011799410029425,285.5623295389514,2.521703882306823,2.521703882306822,266.59521608423324
23.36283185840705,286.13819716141006,2.7386477341666695,2.7386477341666704,266.0934445234135
22.71386430678467,285.73815849906936,2.822780387539257,2.822780387539258,266.80111267876686
22.06489675516218,285.6830847680381,2.783219585921637,2.783219585921636,266.41878649449137
21.415929203539804,285.6985738541189,2.3171725730553328,2.3171725730553305,266.47493815982887
20.766961651917313,285.5354608180605,2.6861125130471124,2.6861125130471093,266.3923074243042
20.117994100294936,285.80654788883436,2.684883862286226,2.684883862286225,266.4719995004773
19.46902654867256,285.7509337097239,2.7096518030759786,2.7096518030759795,266.1257123540649
18.82005899705007,285.7544621378494,2.964676725818958,2.9646767258189612,266.01577488960464
18.17109144542769,285.6890396978362,2.4550742392859335,2.4550742392859335,266.0279507681179
17.522123893805315,286.1965548884251,2.9286976366588244,2.928697636658821,267.1003566175448
16.873156342182824,285.8305666404417,2.8805726595865986,2.8805726595865973,267.24536795432863
16.224188790560447,285.76531850005813,2.810730233975871,2.8107302339758724,267.160360429154
15.575221238937957,285.3589555935728,2.5105948212542497,2.510594821254251,267.2663159866113
14.92625368731558,286.06010134484256,2.611672875852081,2.611672875852082,266.2859677514377
14.277286135693203,285.8088271191648,2.5260032477533283,2.5260032477533274,266.4446171459332
13.628318584070712,285.3266064921355,2.746514075660764,2.7465140756607633,267.2287110043859
12.979351032448335,285.93860877663917,3.013492413986033,3.013492413986033,266.8717221155319
12.330383480825958,285.6332701883285,2.7177039261025513,2.7177039261025526,266.3887867104077
11.681415929203467,285.4953255021006,2.6457803661743715,2.6457803661743706,266.6448538272425
11.03244837758109,285.6072211158162,2.541620216878976,2.5416202168789743,266.6836067531266
10.3834808259586,285.93675824544414,2.605938672923725,2.605938672923726,266.63769955962454
9.734513274336223,285.92363022741824,2.6417377808919578,2.6417377808919578,266.6654366892248
9.085545722713846,285.9349966410953,2.7371331020502225,2.7371331020502225,266.875264492147
8.436578171091355,285.66091351336127,3.0123251847798422,3.012325184779842,267.0492718098828
7.787610619468978,286.20734126331183,2.5287121375442516,2.5287121375442503,266.62185815200957
7.138643067846601,285.79193055543175,2.751777468055536,2.7517774680555354,266.68870191345593
6.489675516224111,285.82136447382925,2.9960586230871638,2.996058623087162,266.8043821430984
5.840707964601734,285.8137420404415,3.05479407849811,3.054794078498111,266.23183510013666
5.191740412979357,285.8596798680962,2.95854465993199,2.958544659931989,266.75317361137303
4.542772861356866,285.72147461968245,2.9035179705351313,2.9035179705351317,266.8054953964578
3.893805309734489,285.69684520232147,2.7000331648719205,2.700033164871922,266.6578717499541
3.2448377581119985,285.51582119940434,2.7758927410347023,2.7758927410347023,266.86974964031083
2.5958702064896215,285.8194986128286,1.9850945854113147,1.9850945854113171,266.5265043643219
1.9469026548672446,285.9304296612199,2.899874091743848,2.899874091743849,266.64818993003115
1.297935103244754,285.9504062002257,2.914409782531414,2.914409782531415,266.49137833263035
0.648967551622377,285.89909163772927,2.425068624865943,2.4250686248659434,266.75184427012135
0.0,286.0794868065939,2.6724642034105663,2.6724642034105655,266.6979583597629
