z in mm,sigma xx in mm2,sigma xy in mm2,ysigma yx in mm2,sigma yy in mm2
0.0,275.3617985992772,3.9975574468655086,3.99755744686551,250.7867887023792
0.676923076923077,274.8392958959863,3.907196977030299,3.9071969770302957,250.93118715621728
1.353846153846154,274.862466498942,3.4960971708173934,3.4960971708173902,250.5205859294131
2.0307692307692307,274.83169177041134,3.986941599164319,3.986941599164317,250.91597864683158
2.707692307692308,274.8616097425186,3.960422318688015,3.960422318688015,251.28290840036428
3.384615384615385,274.9596789777844,4.09285172908208,4.092851729082081,250.73469292370675
4.061538461538461,275.00228493152014,3.783578629769421,3.783578629769419,251.38471895463
4.7384615384615385,274.93381610941873,4.097151949165971,4.097151949165972,251.23898443728618
5.415384615384616,275.1497729075993,4.132274772165206,4.132274772165206,251.20295293949968
6.092307692307693,275.1670199681034,3.9163117227359856,3.9163117227359865,250.9835855494633
6.76923076923077,275.19007768203244,3.6703204544792216,3.6703204544792216,251.49767740284386
7.446153846153846,275.02616557905026,3.759048119021934,3.7590481190219323,250.97209186056065
8.123076923076923,275.00725193505855,3.9998571896530106,3.9998571896530106,251.16629548346376
8.8,276.1429421994648,4.211085388532428,4.21108538853243,251.25301880199828
9.476923076923077,275.11171440139174,3.8561115436991806,3.856111543699182,251.36229981410915
10.153846153846155,275.23934822404436,3.7461422982820674,3.746142298282069,251.3005828045952
10.830769230769231,275.5625581351974,4.158301979773641,4.158301979773641,251.38096075392238
11.507692307692308,275.14723249297055,3.7318665967456797,3.7318665967456797,251.45255202174906
12.184615384615386,275.79671309663127,4.035811931535471,4.035811931535472,251.4497452791614
12.861538461538462,275.3651358960137,3.704769649476086,3.7047696494760842,251.15531322600313
13.53846153846154,275.5890752155134,4.136330959650755,4.136330959650755,251.62753116059295
14.215384615384616,275.2193854041998,3.8689787788465453,3.8689787788465453,251.6137739744018
14.892307692307693,274.805752731963,4.156156370870824,4.156156370870824,251.53868242923744
15.56923076923077,274.76599825240737,4.135347643765989,4.135347643765989,251.38257392364844
16.246153846153845,274.84167299049994,3.6792966170697787,3.6792966170697787,251.46374301842167
16.923076923076923,274.7776623347968,4.108678965640205,4.108678965640206,251.82893604367365
17.6,274.30568033830434,4.187872502573702,4.187872502573702,251.83906508731008
18.27692307692308,274.3439383191707,4.065357629703188,4.065357629703187,251.29554192615322
18.953846153846154,273.96602999870936,4.250894301242046,4.250894301242046,252.10538136932044
19.630769230769232,274.2011469958008,4.185181894406599,4.185181894406599,251.75252390293173
20.30769230769231,273.74388325321996,4.229602034379229,4.22960203437923,251.41824463509084
20.984615384615385,273.6552519326851,4.243659177424152,4.243659177424151,251.8393373195564
21.661538461538463,273.40136695674875,4.536399872681952,4.536399872681952,251.7438309415819
22.33846153846154,273.192583842014,4.256096236111519,4.256096236111517,251.72249122985357
23.015384615384615,273.215096305194,4.192040479502836,4.192040479502837,252.0559863886564
23.692307692307693,273.12978318627825,4.29242514967934,4.2924251496793415,252.47542986971143
24.36923076923077,273.1411083792525,4.006408722648118,4.006408722648118,252.49137866794527
25.046153846153846,272.7547383221568,4.1106473749231345,4.110647374923135,252.52637700672625
25.723076923076924,272.5395824078962,4.34444392852093,4.344443928520932,252.41237954277878
26.400000000000002,272.5412120600808,4.532891187780665,4.532891187780665,252.50957072649152
27.07692307692308,271.9554865958097,4.36846165373035,4.36846165373035,252.35805097625556
27.753846153846155,272.0131265007559,4.269267809139223,4.269267809139223,253.00634849703627
28.430769230769233,272.15339827569375,4.160289661365029,4.160289661365029,252.27958161441234
29.10769230769231,271.6303977087802,4.574744574026013,4.574744574026013,252.37387081122318
29.784615384615385,271.134703740054,4.184335139625803,4.184335139625804,252.75905106917125
30.461538461538463,270.8279619476097,4.46311898459902,4.463118984599019,252.68176779255992
31.13846153846154,270.97999564358895,4.310149214729716,4.310149214729716,252.90631416149128
31.815384615384616,270.7451908087753,4.771883537785688,4.771883537785689,252.8614864430548
32.49230769230769,270.73098753715226,4.7970096302733225,4.7970096302733225,252.30850369844282
33.16923076923077,270.348782900454,4.884427711388085,4.884427711388087,253.0729057711065
33.84615384615385,270.2097857888533,4.692491458131618,4.692491458131622,252.89641318028185
34.52307692307693,269.68096887237283,4.848514870173148,4.84851487017315,252.52978579326216
35.2,269.35638449666703,4.809423023297247,4.809423023297248,253.5966633287148
35.87692307692308,268.837405146593,5.1313193546441696,5.1313193546441696,253.56977008190248
36.55384615384616,268.4103436258675,4.6153889787184905,4.6153889787184905,253.6008443990401
37.23076923076923,269.1885619616868,4.694731391738584,4.694731391738584,252.76546631941684
37.90769230769231,268.49088091296704,5.003132151078557,5.003132151078557,253.77092459168603
38.58461538461539,268.2797086085756,5.072871821872892,5.072871821872891,253.31933077047916
39.261538461538464,268.11283903523366,5.2606789204328575,5.260678920432858,253.08832644818352
39.93846153846154,267.5308828777731,4.910963638649369,4.910963638649369,253.47051952331688
40.61538461538462,267.4063776151298,5.0274799310011264,5.027479931001128,253.66723778243022
41.292307692307695,267.0796470885729,5.282682787288691,5.282682787288692,254.34338389707244
41.96923076923077,267.1672093826998,5.4429277538427,5.4429277538427,253.8360145351718
42.64615384615385,266.8337654241054,5.454656147982607,5.454656147982608,254.1447849242191
43.323076923076925,266.34990746241107,5.308903168078532,5.308903168078532,253.83391370809798
44.0,265.67050305033854,5.596405193407282,5.596405193407284,254.35176644315305
44.67692307692308,265.7527074284295,5.5590126087367615,5.5590126087367615,254.06223608160545
45.353846153846156,265.2637207395044,5.343693738614827,5.3436937386148236,253.91053058091802
46.03076923076923,265.7726785007135,4.510580617585688,4.5105806175856875,254.45828463011023
46.70769230769231,264.7236895605864,5.467967857670797,5.467967857670795,254.54768212171263
47.38461538461539,264.6624138695625,5.48772871963997,5.487728719639967,254.167058659035
48.06153846153846,263.98495109488584,5.475643279456936,5.475643279456937,254.19721439041848
48.73846153846154,264.10002490818783,5.771907233383436,5.771907233383436,254.4275225214531
49.41538461538462,263.78513866384225,5.663192661878051,5.663192661878051,254.378133701755
50.09230769230769,263.51818203222837,5.674645423267128,5.674645423267128,254.5126162787039
50.769230769230774,263.4222959533596,5.943743610751786,5.943743610751786,254.97141768972577
51.44615384615385,262.7590924594467,5.730407169265267,5.730407169265271,255.45700661103518
52.12307692307692,262.42591580592284,5.655730484992575,5.655730484992575,255.13371131018607
52.800000000000004,262.6603255853812,5.815480548133122,5.8154805481331255,255.236409915806
53.47692307692308,262.23558783186087,5.9905298843927355,5.9905298843927355,255.93223548932207
54.15384615384616,261.4966523827571,5.8055362968799225,5.805536296879925,255.2557478336604
54.830769230769235,261.89622999596907,6.20304028102777,6.20304028102777,255.2367211086093
55.50769230769231,261.0979333080635,6.429047014508812,6.429047014508812,254.55925714216232
56.18461538461539,260.95917786452435,6.067685407334187,6.067685407334187,255.0335481450068
56.861538461538466,259.8766948578482,6.108907473209999,6.108907473210001,255.62232569779027
57.53846153846154,259.5767144169978,6.299454816909567,6.299454816909563,255.39644411374655
58.21538461538462,259.6163157093003,6.132162058063553,6.132162058063552,255.8729766036071
58.892307692307696,259.59323351825776,6.692398832862785,6.692398832862785,256.2565064506757
59.56923076923077,258.94932708542177,6.720823473178627,6.720823473178628,256.41395574187897
60.24615384615385,259.0697921510177,6.884270952279384,6.884270952279382,255.81440779203228
60.92307692307693,258.44184623741666,6.854536238929908,6.854536238929905,255.79639132734937
61.6,258.3422786436867,6.270744845008639,6.270744845008639,255.91992664132667
62.27692307692308,257.4377731395504,6.550546713543135,6.550546713543135,256.60097773467635
62.95384615384616,257.35960189706503,6.9340156747629775,6.934015674762979,256.79966519213326
63.63076923076923,258.0081450928314,6.505960732846887,6.505960732846886,257.57094481265506
64.3076923076923,257.62316832742454,6.401978935048172,6.401978935048172,256.85574191315334
64.98461538461538,256.3545789665734,6.886246172907736,6.886246172907739,256.85230274510275
65.66153846153847,255.51911530229995,7.0057991320678905,7.005799132067888,256.9566017956503
66.33846153846154,255.0270204805634,7.169025553708129,7.169025553708129,256.81334278368143
67.01538461538462,255.62022043606927,6.74501404243747,6.745014042437468,256.6518376196005
67.6923076923077,254.7195823483303,7.128638576620874,7.1286385766208715,256.4111850884396
68.36923076923077,255.08802760183718,7.033368620854819,7.033368620854819,256.8826503892371
69.04615384615386,253.6882559441165,6.88408382550098,6.88408382550098,257.0452443710281
69.72307692307693,253.76493372731005,7.353045846004519,7.353045846004519,257.87716841788244
70.4,253.93010151006027,7.175225261013052,7.175225261013054,257.9844053927322
71.07692307692308,253.35764224353832,7.027172614378893,7.027172614378893,257.6220383035189
71.75384615384615,252.43785630755636,7.472450786535989,7.47245078653599,258.0595300357353
72.43076923076923,252.50691096108406,7.710969621734551,7.710969621734551,258.4082012051472
73.10769230769232,251.75453611429361,7.755550166215518,7.75555016621552,258.36700628834717
73.78461538461539,251.71971851505313,7.665306477295327,7.665306477295327,259.03453883295015
74.46153846153847,250.9769583443912,7.351176076629362,7.351176076629364,258.8301853919429
75.13846153846154,253.148672048011,7.797341070148317,7.797341070148315,257.39046510891427
75.81538461538462,251.15618759238345,8.06105254227978,8.061052542279779,258.5162812007969
76.49230769230769,250.39247260664405,7.720593090238364,7.720593090238366,258.4262260107306
77.16923076923078,249.45894369343623,7.656098547732224,7.656098547732222,259.0164453466743
77.84615384615385,249.90362476712528,7.724457007597118,7.7244570075971195,258.65102656363763
78.52307692307693,249.24560669476347,6.966275801971252,6.966275801971252,258.63921346814385
79.2,248.61702174143713,7.935609805279029,7.935609805279031,258.80846444733953
79.87692307692308,248.16605802835466,8.352413183426362,8.352413183426362,259.0970748174811
80.55384615384615,247.8266032511553,8.149142649864979,8.149142649864979,259.3859688892873
81.23076923076924,247.153562739129,8.055011479895548,8.055011479895548,259.71476298301667
81.90769230769232,247.04319673560298,8.157661481594676,8.157661481594676,259.6095778218682
82.58461538461539,246.38321156470434,8.166948511227478,8.166948511227472,260.3449961112289
83.26153846153846,245.9593311316555,8.5795564956759,8.579556495675897,259.85123059288054
83.93846153846154,245.44944140188693,8.432501403254088,8.432501403254088,259.90831309816485
84.61538461538461,244.6982892768994,8.572512673060986,8.57251267306099,260.70411546819577
85.2923076923077,244.7895962312449,8.55543916796736,8.555439167967364,259.8584435188452
85.96923076923078,244.01651156456487,8.371353936807099,8.371353936807099,260.1173044855633
86.64615384615385,244.83855426756423,9.02488450966718,9.024884509667181,259.44907773759377
87.32307692307693,243.46653561704963,8.881035418820476,8.88103541882048,260.49706228227615
88.0,242.9890583924669,8.710204309716007,8.710204309716007,260.44846874464156
88.67692307692309,242.58508502947393,8.67507648101508,8.67507648101508,260.33480883333993
89.35384615384616,242.65995489605132,8.766516214363325,8.76651621436332,260.6661712389683
90.03076923076924,241.59489248065188,9.376101977951011,9.376101977951008,261.42591654457306
90.70769230769231,241.0595013759101,8.960649041062366,8.96064904106237,260.8562033689033
91.38461538461539,240.39823912866046,8.989134238171564,8.98913423817156,261.4219298779754
92.06153846153846,239.87670691656533,9.169340454686205,9.169340454686205,261.37250896484676
92.73846153846155,239.87207850365394,9.283742723469569,9.283742723469569,261.33588613445954
93.41538461538462,239.12870763677807,9.737959805831268,9.737959805831268,261.993184308839
94.0923076923077,239.1804151298154,9.338582577603308,9.338582577603308,261.47297259424397
94.76923076923077,238.49896412176273,9.629909036102088,9.629909036102088,261.91011503531973
95.44615384615385,239.05152864334593,9.438115262986662,9.438115262986654,261.72949421096683
96.12307692307692,237.599887685172,9.77832114208182,9.77832114208182,261.8933584521791
96.80000000000001,236.7822760044982,9.998010476190224,9.998010476190226,262.0719257411669
97.47692307692309,236.76785514445933,9.633806608330703,9.633806608330701,262.1653737635948
98.15384615384616,236.41964152075334,9.86865672461595,9.86865672461595,262.37777083095295
98.83076923076923,235.89982100796476,9.07168228128962,9.071682281289622,263.0900044318476
99.50769230769231,235.45244529588322,10.068882360386207,10.06888236038621,262.32052997182274
100.18461538461538,234.67110203960743,10.04531993188935,10.045319931889352,262.75696347958944
100.86153846153847,234.5843950617684,10.18933609958303,10.18933609958303,262.9595791018664
101.53846153846155,234.4217176177029,10.296913322725405,10.296913322725407,263.7826555507988
102.21538461538462,233.78118360691792,10.33954728775248,10.33954728775248,263.61344498521316
102.8923076923077,233.23460188317185,10.704170512803719,10.704170512803715,263.5374408373812
103.56923076923077,233.30245216551836,10.747480671457655,10.747480671457655,263.54986394661853
104.24615384615385,232.71603789655785,10.197303501916071,10.197303501916073,263.78750333419805
104.92307692307693,232.23031589645083,10.515774571213221,10.515774571213223,263.8046190680549
105.60000000000001,231.26431280809763,10.659362945667443,10.659362945667443,263.8244829612847
106.27692307692308,230.5938135477654,11.055289831148643,11.055289831148643,264.398877838021
106.95384615384616,230.5102122468172,11.564353131492373,11.564353131492373,263.41356102642595
107.63076923076923,229.3794920842713,11.054846037452704,11.054846037452704,264.33008619360083
108.30769230769232,230.3846510840881,10.702011292136094,10.702011292136095,263.94547982461273
108.9846153846154,228.71016197368309,11.171431474595902,11.171431474595906,263.7975043862269
109.66153846153847,228.2688980768704,11.191695217791981,11.191695217791983,264.5886369464355
110.33846153846154,227.38883267938124,11.256281228672279,11.256281228672277,264.3546649598955
111.01538461538462,226.71132521705718,11.60229965873263,11.60229965873263,264.7830524480225
111.6923076923077,227.04360972742015,11.050886565553405,11.050886565553405,264.95212977848934
112.36923076923078,228.50399603654316,10.81348411989738,10.813484119897376,264.7709828095373
113.04615384615386,225.81005629964585,11.71067568880172,11.710675688801725,265.31317998757163
113.72307692307693,224.81578205602992,11.576806089691367,11.576806089691363,264.8475405370198
114.4,224.84361538611407,11.593493332218166,11.593493332218166,265.0321866651543
115.07692307692308,223.8939114013918,11.735024663079287,11.735024663079287,265.93952593471715
115.75384615384615,224.84774268599367,11.796440611945851,11.796440611945847,265.9621623255885
116.43076923076924,200.58150647085904,16.111537690429955,16.111537690429955,270.95621636423687
117.10769230769232,200.80089264824738,16.136456210847655,16.13645621084765,271.56499107852625
117.78461538461539,200.04005971101762,16.558746928228253,16.55874692822825,270.94828899199797
118.46153846153847,200.29006057243663,15.715597947059264,15.715597947059257,271.59956349629806
119.13846153846154,199.2509870439052,16.65651082263286,16.656510822632857,271.7853913170339
119.81538461538462,198.94924359326123,16.839844110013164,16.839844110013164,272.0672179634662
120.4923076923077,198.31418294753288,16.59601297354569,16.596012973545694,271.8072333790247
121.16923076923078,197.35868688018576,16.465184775615132,16.465184775615132,272.2619409822889
121.84615384615385,197.52173871267567,16.377073838206726,16.377073838206726,271.9637963410625
122.52307692307693,197.04382100880267,16.121996367125245,16.12199636712524,272.8689169716334
123.2,195.7631752978193,17.429575575186675,17.429575575186682,272.6243898668522
123.87692307692308,195.7198750725098,16.881057091201733,16.881057091201736,271.9112468064521
124.55384615384617,195.9304132786387,16.39932042409878,16.399320424098775,272.64418908353497
125.23076923076924,197.91544208452083,16.147895226532004,16.147895226532004,271.3767131054166
125.90769230769232,194.17215409520833,17.454672647395952,17.45467264739595,272.18586510240533
126.58461538461539,194.41772606542153,17.70725109176013,17.707251091760135,272.56105823339254
127.26153846153846,192.52827424645312,17.522352761334943,17.522352761334947,273.4256388916335
127.93846153846154,193.83353742700444,17.076794806897087,17.076794806897087,273.1826770788311
128.6153846153846,193.17347124115153,17.101061480615492,17.10106148061549,273.4063348669059
129.2923076923077,192.40802558179112,17.503997991472534,17.50399799147253,273.98332158469674
129.96923076923076,192.75099359598278,17.197382298897434,17.197382298897427,273.0221291213374
130.64615384615385,191.58193131530126,18.000278282572385,18.000278282572385,274.10368092731125
131.32307692307694,191.352436244886,18.20836340384991,18.20836340384991,274.5899844745638
132.0,191.57295282298855,17.04745532097099,17.04745532097099,274.07038738594895
132.6769230769231,190.84005875390167,17.274813960647986,17.27481396064799,275.799083725884
133.35384615384615,190.04745312493685,18.423600767257565,18.423600767257565,274.79735659867
134.03076923076924,189.59597580177586,18.519793109649395,18.519793109649395,274.69549806631244
134.70769230769233,189.92451502243094,18.794070263062714,18.79407026306272,274.5064728194882
135.3846153846154,188.08386774240677,18.628840947821505,18.628840947821498,274.83279621489964
136.06153846153848,187.30507021014122,18.619203415912832,18.619203415912832,275.10948913186627
136.73846153846154,187.41358441584293,18.67363133017602,18.673631330176022,274.94278153251975
137.41538461538462,188.39738761322246,19.16244730311811,19.16244730311811,274.22574189568326
138.0923076923077,186.4048583138001,18.846248950759485,18.846248950759477,275.32380404650655
138.76923076923077,186.38990464223042,18.90490033186965,18.90490033186965,275.6590083801442
139.44615384615386,185.37178410745895,18.885121838833026,18.885121838833026,275.89290585370287
140.12307692307692,186.7924393999607,18.744082836207784,18.74408283620779,276.00011512587866
140.8,184.6964214102582,18.66307355344101,18.66307355344101,278.03858988120624
141.47692307692307,185.39409570286296,19.08162443074326,19.08162443074326,275.68228166729176
142.15384615384616,184.5253533414388,19.90106737637884,19.90106737637884,276.12084901890586
142.83076923076925,183.72576943576107,19.754758373780813,19.754758373780813,275.9202760449013
143.5076923076923,187.4627827688093,17.809640005344654,17.809640005344654,277.53130863665
144.1846153846154,182.50572083978804,19.965748340701783,19.96574834070178,276.7907992666673
144.86153846153846,182.65248783596041,20.123726651872484,20.123726651872484,276.715776474133
145.53846153846155,182.3531027353572,20.040442645616636,20.040442645616636,276.7631974912507
146.21538461538464,181.16799846971728,19.986335145657513,19.98633514565751,276.79531791672304
146.8923076923077,181.4006816966645,20.26344078270671,20.263440782706713,277.34704185375733
147.56923076923078,180.5462191953868,20.214994176992363,20.214994176992366,276.8410171229814
148.24615384615385,179.3839535295558,20.309081429305703,20.30908142930571,276.83392735580605
148.92307692307693,179.003771643144,20.258072506071265,20.25807250607127,276.5783361505175
149.6,178.7955245218268,20.02302917593121,20.023029175931207,276.68531855516846
150.27692307692308,178.59354391874103,19.95595746047638,19.95595746047638,277.60367015143845
150.95384615384617,179.048806588349,20.201495509405806,20.201495509405806,278.08145698646354
151.63076923076923,178.06905793633743,20.710979106451664,20.710979106451664,277.5232020418343
152.30769230769232,178.07184345309352,20.919290279551582,20.919290279551582,277.71217765224833
152.98461538461538,177.26334131395487,21.052968190552033,21.05296819055203,277.6375826377295
153.66153846153847,177.47642730546931,20.865953810914995,20.865953810915002,278.68272487975787
154.33846153846156,177.48199619858406,20.951376823454428,20.951376823454428,278.44345091150126
155.01538461538462,176.5924129915133,20.498875744659433,20.498875744659436,278.75164272546647
155.6923076923077,175.79617464814808,21.31761601604253,21.31761601604253,278.86977444059414
156.36923076923077,175.55971799862186,21.449057483711844,21.449057483711844,278.84628125476826
157.04615384615386,175.37183033654003,20.403798535208246,20.40379853520824,279.44241606043664
157.72307692307695,173.91186754395582,21.854460028683064,21.854460028683068,279.04786665739573
158.4,174.2797645118522,21.459492490990463,21.459492490990456,279.23703879107626
159.0769230769231,173.9291055115247,21.436872483897567,21.436872483897567,279.17608613472316
159.75384615384615,172.67115837660094,21.509090034177724,21.50909003417772,279.2287291786112
160.43076923076924,172.12754969262562,21.656737828895775,21.65673782889578,279.2263473619423
161.1076923076923,173.44771580219242,21.542340366629816,21.542340366629816,279.17400288898
161.7846153846154,171.98920081240374,21.910115362692114,21.910115362692114,279.35317190239823
162.46153846153848,175.71927966797182,20.966957943443774,20.966957943443774,278.19354481297654
163.13846153846154,172.0790927040172,23.174815054414296,23.174815054414303,280.96159809410307
163.81538461538463,170.31688630695257,21.248515093048074,21.248515093048077,279.0567102860874
164.4923076923077,170.72355876925295,21.554188027788616,21.55418802778861,279.8047832854734
165.16923076923078,169.66616879730782,21.970140074031594,21.970140074031594,279.82800759080385
165.84615384615387,169.78422979338063,21.660550589674855,21.660550589674855,280.39848825307644
166.52307692307693,170.5750577057998,22.13863220242811,22.138632202428102,280.06584552649105
167.20000000000002,161.38042063097296,23.365235603474357,23.365235603474357,276.90920696375525
167.87692307692308,160.44052703715187,23.77379007166087,23.77379007166087,278.07082914492685
168.55384615384617,160.66413396626294,23.412824054661606,23.412824054661602,278.5080746783748
169.23076923076923,157.90667836508638,23.95546874342589,23.95546874342589,277.0104441911757
169.90769230769232,157.7795572376278,24.125631175775027,24.12563117577503,277.4572527255562
170.5846153846154,158.09898157034056,23.294749187603333,23.294749187603333,278.677620177105
171.26153846153846,157.57912577742158,24.070694734325656,24.070694734325652,278.5786815680705
171.93846153846155,158.058232860945,24.115136149810084,24.115136149810084,278.0759673650363
172.6153846153846,157.04344097626736,23.96546937430229,23.96546937430229,279.03744631124084
173.2923076923077,157.8874429216303,24.58418922782555,24.584189227825558,278.53134323185077
173.9692307692308,156.7023102097794,24.236947385000487,24.236947385000487,279.2705786737715
174.64615384615385,155.93875298338799,24.502359941509326,24.50235994150934,279.50595553892975
175.32307692307694,155.3958472283762,24.646381691139755,24.64638169113976,278.9773991879787
176.0,158.04742800792775,24.709271603207053,24.709271603207057,277.8364167597746
176.6769230769231,156.38986028079003,23.681881181969935,23.68188118196994,278.4150295968464
177.35384615384618,152.55411444132358,24.944063251306236,24.944063251306233,279.1412066236306
178.03076923076924,150.98128471964196,24.987637399578485,24.98763739957849,278.0270269326615
178.70769230769233,150.99265183099408,25.12819707145163,25.12819707145163,278.10213148604856
179.3846153846154,149.493011944093,25.215912267424283,25.215912267424283,278.6210904835784
180.06153846153848,149.14002121865826,25.481842402995948,25.481842402995948,278.5524344077756
180.73846153846154,148.2957661757861,26.118772096370527,26.118772096370535,278.5437856700082
181.41538461538462,147.65718220022924,26.774163178410664,26.774163178410664,279.36427939910976
182.0923076923077,147.62068421095432,26.174997392220973,26.174997392220973,278.41714036408166
182.76923076923077,147.71151095441897,26.372144882691018,26.37214488269101,278.04643842383194
183.44615384615386,146.69637230359388,26.164499109483,26.164499109483,278.9664347756663
184.12307692307692,147.72266422426586,27.33037612683526,27.330376126835265,277.41677314752525
184.8,147.71416863704786,27.05663261858824,27.056632618588242,277.7710681141301
185.4769230769231,145.6322077365585,26.603911813913072,26.603911813913072,279.69596874958194
186.15384615384616,145.10545255948247,26.642397914724686,26.642397914724686,278.13452535701686
186.83076923076925,144.30782425900932,26.655483128952486,26.655483128952486,278.54720486002896
187.5076923076923,148.82996802559066,26.751789579854556,26.751789579854556,280.32218951102965
188.1846153846154,149.06758799874902,26.36092361967255,26.36092361967255,280.48072641473965
188.86153846153846,147.250920037328,26.8382543775028,26.838254377502803,280.6564358063872
189.53846153846155,149.22436567718205,26.733964201017375,26.733964201017375,278.92318222149277
190.21538461538464,146.79023237228142,25.5878274306973,25.587827430697303,281.36566214720904
190.8923076923077,148.6211549755744,24.650080851484734,24.650080851484734,281.73632325824167
191.56923076923078,146.32948726976466,26.28953179432516,26.289531794325153,281.19003483539234
192.24615384615385,147.2170203830642,26.113936520204387,26.113936520204383,281.0773193862386
192.92307692307693,145.7364545949137,26.38829491866234,26.388294918662343,282.02358072688946
193.60000000000002,144.0162589496667,27.291882916513774,27.29188291651377,280.84780577796886
194.27692307692308,145.76586684599656,26.890422765568236,26.890422765568236,280.50655891698597
194.95384615384617,145.1723904410919,27.21879856143084,27.21879856143084,281.5683082519944
195.63076923076923,141.05582873611107,27.796355834479364,27.79635583447937,280.30328715344586
196.30769230769232,140.4775731809279,27.127149117432708,27.127149117432705,280.009817124466
196.9846153846154,141.16042860817112,28.060491223653557,28.060491223653557,280.4680587735484
197.66153846153847,142.31866870543558,27.478777655757813,27.478777655757813,279.68146786181234
198.33846153846156,144.07412307605256,27.93265444675026,27.93265444675026,279.54503639665046
199.01538461538462,141.99697140159634,27.66087755557822,27.66087755557822,280.3793790965088
199.6923076923077,142.1587215782256,27.26794027399975,27.26794027399975,281.33508121503144
200.36923076923077,142.651224572033,26.919995950427726,26.91999595042773,282.2936814914725
201.04615384615386,142.6016986336519,26.96814234583859,26.96814234583858,281.44890488409465
201.72307692307695,143.6398907829778,26.27615677322291,26.276156773222905,284.05161438767556
202.4,145.05542118345795,26.765534037882627,26.765534037882627,282.7482554329536
203.0769230769231,143.0680593137478,27.141159438983912,27.14115943898391,282.9345146436104
203.75384615384615,143.95949325233363,27.04528683168342,27.04528683168343,282.84801165690385
204.43076923076924,143.88398115046073,27.018405074774442,27.018405074774442,283.24976634745116
205.10769230769233,144.23891319619455,27.418422076988154,27.418422076988158,283.5812618521644
205.7846153846154,141.80631972901568,27.462777363654034,27.462777363654038,282.7255383884088
206.46153846153848,142.50891371018477,26.983786326112522,26.983786326112522,282.67553723451505
207.13846153846154,142.31542110410103,27.466257005320898,27.466257005320898,283.3800488206875
207.81538461538463,142.80675362175523,27.205795535700776,27.205795535700783,283.6158207712803
208.4923076923077,143.4203129564665,26.617069183083398,26.617069183083395,283.0948949086928
209.16923076923078,139.47151231324233,27.728730773302793,27.728730773302797,282.2493991456437
209.84615384615387,140.1858226097595,27.216767908661605,27.216767908661613,282.9498330468845
210.52307692307693,140.30437331665962,28.26663233750925,28.26663233750924,281.6041840724931
211.20000000000002,138.1601347737851,28.3859600442556,28.3859600442556,283.02360477183186
211.87692307692308,139.68462684241854,27.8533593340369,27.853359334036917,281.6376348125519
212.55384615384617,137.92092749011172,27.860502379989047,27.86050237998905,282.24165153869217
213.23076923076925,137.79959342251306,26.629531782794643,26.629531782794643,283.5235875577309
213.90769230769232,140.21915519957318,28.90436302820217,28.90436302820217,283.2373410127855
214.5846153846154,145.28834753642724,26.56598006079784,26.56598006079784,280.22273594251334
215.26153846153846,138.11141233974237,28.160476842532372,28.160476842532365,282.96436011482774
215.93846153846155,137.2868155153807,27.81875263211258,27.818752632112584,282.69303920737633
216.61538461538464,142.0711940761496,27.359161704644734,27.359161704644734,282.7596262364468
217.2923076923077,140.5952568712979,30.945059297475886,30.945059297475897,282.7184368675535
217.9692307692308,139.3122326352208,28.681372452551948,28.681372452551948,281.69346518494297
218.64615384615385,136.9286694408238,28.50641026596601,28.506410265966007,282.5716036341886
219.32307692307694,137.09547188705642,27.21985347969031,27.21985347969031,282.0650129940629
220.0,135.25447567654587,28.35099976795857,28.350999767958566,282.484161913198
220.6769230769231,142.37880317501265,29.104426260644285,29.104426260644285,282.47435838922297
221.35384615384618,137.2181420553045,26.405095618144685,26.405095618144674,283.23614649455766
222.03076923076924,136.20575476717457,27.94549756320314,27.94549756320314,282.70385208060975
222.70769230769233,137.42364876753834,29.99532217791751,29.995322177917508,282.64966403315526
223.3846153846154,137.22797430786625,28.688280396019234,28.688280396019234,282.98255793272426
224.06153846153848,136.06393281821812,28.910332382442043,28.910332382442046,284.0225895119107
224.73846153846156,137.17057652754235,26.969579438282523,26.96957943828252,283.9368936622652
225.41538461538462,136.26821040775846,28.609589937377613,28.609589937377613,283.88453310747917
226.0923076923077,134.64546146606338,29.104533109291147,29.104533109291147,283.1993051630907
226.76923076923077,135.73198227368314,28.570857056253146,28.57085705625314,282.87735799279574
227.44615384615386,134.9048866751225,28.469517072087235,28.469517072087235,283.32472662932605
228.12307692307692,134.74221953969658,28.893589259651574,28.89358925965157,283.20765162083046
228.8,134.7550420885898,28.399928081464363,28.399928081464367,282.2506448889387
229.4769230769231,134.82919421402875,28.87909654793297,28.879096547932974,283.9530779381616
230.15384615384616,133.90629579793034,29.419534731168476,29.419534731168476,282.5652965230762
230.83076923076925,133.44208333919698,29.047444641578966,29.047444641578966,284.08344914951806
231.5076923076923,136.51438156459085,33.539700825362665,33.539700825362665,282.64675472701606
232.1846153846154,129.54220707875174,28.91752757822126,28.917527578221254,282.1034615414056
232.8615384615385,131.85891948156282,28.861822378848718,28.861822378848718,282.1669249603631
233.53846153846155,131.84436684362896,29.160742440221735,29.160742440221735,282.5206155453355
234.21538461538464,134.00494631294987,28.912726722843036,28.912726722843036,283.28819883264356
234.8923076923077,133.78383537287564,29.588483020885953,29.588483020885953,283.59740425887384
235.56923076923078,134.61232209423451,29.12093483761941,29.120934837619405,283.58641151368494
236.24615384615385,138.189793869777,29.255225776373933,29.255225776373933,281.19586022736394
236.92307692307693,132.7751145976755,30.187306080158482,30.187306080158486,282.4017236120434
237.60000000000002,135.3327195957166,27.75054734955766,27.75054734955767,283.10923769498413
238.27692307692308,129.98083495766576,29.35209586686857,29.35209586686857,282.6641338585165
238.95384615384617,129.94272141353312,29.180812256797935,29.180812256797935,283.4257850422087
239.63076923076923,132.27137065705637,27.385269200889073,27.385269200889073,282.48111245494505
240.30769230769232,129.63635797718695,29.690810814516894,29.6908108145169,282.8100596870448
240.9846153846154,129.35455838307706,30.290108568653018,30.290108568653018,282.9162248025602
241.66153846153847,130.17789713659147,28.932630988376655,28.932630988376655,283.46659320505256
242.33846153846156,129.54827330784875,30.051540361994753,30.051540361994746,283.07911803560404
243.01538461538462,131.40248581182357,29.44343556002948,29.44343556002948,282.974393492563
243.6923076923077,127.8901491887531,29.69115758679678,29.691157586796784,283.45538065707507
244.3692307692308,128.19350964656618,29.936950738971312,29.936950738971316,284.24323828772924
245.04615384615386,129.81516482339256,30.283901060265126,30.283901060265126,283.09247555049734
245.72307692307695,128.19421932361072,29.97788448955396,29.977884489553958,283.585860877043
246.4,128.535221820857,30.553374587128488,30.553374587128488,283.33925198421326
247.0769230769231,127.8310145788417,30.592323356261026,30.592323356261023,283.3390373449127
247.75384615384615,127.3933679118821,30.267628819831653,30.267628819831657,283.2779072807675
248.43076923076924,127.87486104429529,30.862795016021426,30.862795016021426,283.53469568989954
249.10769230769233,126.72279044830098,30.32841151605553,30.32841151605553,283.2600762705701
249.7846153846154,130.2246604292716,30.346567957555646,30.34656795755565,284.53827015898565
250.46153846153848,129.62234414878603,30.1240493041366,30.124049304136605,284.2608400825967
251.13846153846154,130.7314846349477,28.93176183705478,28.931761837054783,284.5032983616531
251.81538461538463,133.7952491722272,28.192744399372074,28.192744399372067,286.06463197876195
252.49230769230772,133.08281821874797,30.210700647517626,30.210700647517626,286.0325362780404
253.16923076923078,132.53292091085675,29.99410231861493,29.99410231861492,285.60372868829404
253.84615384615387,143.45532456312048,29.85815546055494,29.858155460554944,292.0914349336464
254.52307692307693,144.0940722353173,28.178906675593534,28.178906675593534,287.3335113310941
255.20000000000002,143.47073727560954,28.619733236052678,28.619733236052685,287.6287323062201
255.87692307692308,144.05081060835,29.282773006473974,29.282773006473978,289.04801310544264
256.55384615384617,144.25285974106066,28.694254419463856,28.694254419463856,287.6794139653721
257.2307692307692,142.74385431053864,29.008295531363725,29.008295531363725,288.87574670995076
257.90769230769234,142.48337320771523,28.942936984698314,28.94293698469831,288.7437819836464
258.5846153846154,143.09340525943844,28.950496504372158,28.950496504372158,288.0159552770542
259.26153846153846,143.992124766567,27.070709825979485,27.07070982597948,290.01058898932587
259.9384615384615,143.1669010372185,29.439420099265387,29.439420099265387,287.51611527189596
260.61538461538464,143.11118662961087,29.129965148237517,29.129965148237517,287.8766247128166
261.2923076923077,143.08942397639728,28.47497478010401,28.47497478010401,288.84987417089184
261.96923076923076,143.74621827043464,29.216757351129296,29.2167573511293,288.08435052409885
262.6461538461539,142.6032941274715,28.991661731311712,28.991661731311712,288.4549317888645
263.32307692307694,142.75334600189453,29.01670723769923,29.01670723769923,289.1270063922323
264.0,131.2827482507377,31.209964802087978,31.209964802087985,285.84175655612347
264.6769230769231,131.98034107940816,29.26402824844031,29.264028248440304,285.60467998893625
265.3538461538462,130.81383791555228,31.683839332407466,31.683839332407473,286.13184839899463
266.03076923076924,131.60877417397714,30.728882373461623,30.728882373461627,285.6827286989354
266.7076923076923,130.85260007732697,31.6180590061717,31.618059006171702,286.3880116596563
267.3846153846154,131.10933217580862,31.770366384321004,31.770366384321004,286.5481759684974
268.0615384615385,130.78394971738842,30.759364808370293,30.759364808370286,284.9425721283667
268.73846153846154,129.7351805689397,30.988642640664406,30.988642640664402,285.69189666615347
269.41538461538465,129.66753400790702,31.16719186460742,31.167191864607418,286.7990919667698
270.0923076923077,129.26353112530998,30.529493842702877,30.52949384270288,286.1653098387554
270.7692307692308,130.89190123557952,29.30725127170205,29.30725127170205,287.01388034398923
271.44615384615383,128.22287984222623,30.497708490996494,30.497708490996498,286.3877182406293
272.12307692307695,126.95560241349276,31.89062775546593,31.890627755465932,284.9316385135018
272.8,126.5652535897912,31.01954583420035,31.01954583420035,286.7660319219165
273.4769230769231,122.2057691624972,31.620586920407437,31.620586920407437,285.33113848653943
274.1538461538462,121.81729296328045,31.67618624135394,31.676186241353943,285.2417577319212
274.83076923076925,121.89150817578732,32.369626350957695,32.369626350957695,284.980749410752
275.5076923076923,122.20064324455606,32.273648775989614,32.273648775989614,285.51932592372253
276.1846153846154,121.8752690763742,31.71302865526202,31.713028655262026,285.5601746013098
276.8615384615385,121.9553332536283,30.36678255715439,30.36678255715439,286.26211591631204
277.53846153846155,122.73465070691331,32.18679556837846,32.18679556837846,285.3054012456181
278.2153846153846,123.00727049623424,30.505633679188982,30.505633679188982,286.9260278498482
278.8923076923077,125.26446060339795,31.88567005286685,31.88567005286685,286.7078503193568
279.5692307692308,125.2290075794513,32.07868067018453,32.078680670184546,286.2093865277514
280.24615384615385,125.11555973391638,31.79013483965064,31.79013483965064,286.6311371195566
280.92307692307696,128.35835976901086,31.929425117299328,31.929425117299328,287.0244316914763
281.6,129.05046387582317,32.23948312189725,32.239483121897266,287.52639594747285
282.2769230769231,128.26650788024625,31.386626174839428,31.386626174839428,288.30317257197737
282.95384615384614,128.80267874387627,31.7843356708375,31.7843356708375,287.88486459670634
283.63076923076926,129.54993319723388,31.52107897762825,31.521078977628246,287.2231787716678
284.3076923076923,128.81089247994413,31.80524797554072,31.805247975540716,288.51113651299295
284.9846153846154,127.03009651427979,31.89631231079857,31.89631231079858,287.70344389862356
285.6615384615385,129.47149941019347,33.059113742173395,33.05911374217339,286.611567399372
286.33846153846156,128.36111429859153,32.61247963633736,32.612479636337355,287.37605589051
287.0153846153846,127.69921998033664,32.15340745668348,32.15340745668348,286.8110674611034
287.69230769230774,126.43138579655796,32.28226450086971,32.28226450086971,287.8214997662753
288.3692307692308,127.007780013889,31.483220783290676,31.483220783290676,287.72740212662376
289.04615384615386,127.09375321256974,32.32276755019672,32.32276755019672,286.9874988687318
289.7230769230769,127.3234804264873,32.07324993628677,32.07324993628677,288.538799001462
290.40000000000003,126.59619546952953,32.21938201807225,32.21938201807224,286.6900332361615
291.0769230769231,127.99284294589444,32.3413883118833,32.34138831188329,287.32572990037835
291.75384615384615,126.76576059360457,31.971267574666882,31.971267574666882,287.45158935281745
292.4307692307693,127.32793758262748,32.46804607607515,32.46804607607515,286.881418410522
293.10769230769233,123.60292460921085,32.86894400475875,32.86894400475875,285.3314181318963
293.7846153846154,124.8860519911372,33.313789782556874,33.31378978255688,286.08870217701957
294.46153846153845,123.58602590449826,32.4553212735646,32.455321273564586,285.58974530031503
295.13846153846157,123.55314202977245,32.18752052056198,32.18752052056198,286.37179944532875
295.81538461538463,124.11126332037628,33.10411774669097,33.10411774669096,285.9282663178297
296.4923076923077,124.85693620636745,30.938522583227666,30.93852258322767,287.273062081933
297.1692307692308,123.82964082515592,32.420352833466936,32.420352833466936,287.42721248628516
297.84615384615387,123.30296812788028,32.844805730048975,32.844805730048975,286.85082428681994
298.5230769230769,123.39985856465837,32.77383198951917,32.773831989519174,286.01480789116397
299.2,123.07373780136298,32.84617645974335,32.84617645974335,286.17412117540744
299.8769230769231,123.38782076231946,32.79095306595763,32.79095306595763,287.23417541752957
300.55384615384617,123.3436682508482,32.667210517766115,32.667210517766115,286.37413144222865
301.2307692307692,123.44620269102414,32.536562043946006,32.536562043946,286.03231210188034
301.90769230769234,122.6545948823424,32.832044037543035,32.832044037543035,286.6375720090535
302.5846153846154,124.58414123704767,32.695542150601554,32.695542150601554,285.364173350069
303.26153846153846,119.83782363710034,33.426186050585784,33.42618605058578,285.22956181547795
303.9384615384616,118.9488726326832,33.27078434343088,33.27078434343088,285.47572194465397
304.61538461538464,118.5365157536897,32.66632303928735,32.66632303928735,285.9287619897154
305.2923076923077,118.36021196174583,32.99043614531427,32.99043614531428,285.3729393469799
305.96923076923076,138.58658569103653,31.33730092170237,31.33730092170237,285.40094157345675
306.6461538461539,138.6893885336626,31.581111061830626,31.581111061830626,285.6842112354521
307.32307692307694,138.7553018619586,31.270387681318418,31.270387681318425,285.61052176061355
308.0,138.12613391169924,31.651823086700478,31.651823086700478,285.67762735855484
308.6769230769231,139.17413009995232,31.1616497951848,31.161649795184804,285.6777846777752
309.3538461538462,139.5360754591629,31.179994899788174,31.179994899788174,285.4614974534246
310.03076923076924,140.08438952609015,31.549115335671086,31.549115335671086,285.5009876733342
310.7076923076923,138.7119712360986,31.30274678545151,31.30274678545151,285.0084871281235
311.3846153846154,139.119954461085,31.456923059997163,31.456923059997163,284.92834750071614
312.0615384615385,138.79803936680872,31.199769535051214,31.199769535051203,285.1770891092429
312.73846153846154,138.64874053900598,31.34965942971646,31.349659429716453,285.2606789392039
313.41538461538465,138.45260249163144,31.444710318604415,31.444710318604407,285.98636067957716
314.0923076923077,138.71399752997914,31.004000447753878,31.00400044775387,284.5974858238637
314.7692307692308,139.00822225113382,31.09475346729957,31.09475346729957,284.18478183765757
315.4461538461539,138.48058321238761,31.527193623794947,31.527193623794957,284.27873461532647
316.12307692307695,138.40679264035228,31.370089332619116,31.370089332619116,283.69923316694343
316.8,138.69857582766687,31.767620766652524,31.767620766652524,284.2164945179377
317.4769230769231,138.0997150303924,31.157431814175382,31.157431814175393,283.75376095809554
318.1538461538462,138.65837614144337,31.36579532445726,31.36579532445727,283.92911983069
318.83076923076925,138.74519722890133,31.277554584421186,31.277554584421186,284.1269290861772
319.5076923076923,139.07084372365674,31.56241658085138,31.562416580851373,283.3170663348578
320.1846153846154,139.19486254555255,31.079197972506126,31.079197972506126,283.92865574379186
320.8615384615385,139.84421466145508,31.105312046804517,31.105312046804517,282.84342401559167
321.53846153846155,139.56280827453708,31.182693768862155,31.182693768862155,283.14759867682903
322.2153846153846,139.45394216505906,31.60397544048436,31.603975440484344,283.8129384649502
322.8923076923077,139.65329386584156,31.063839444828798,31.063839444828798,282.83881856183064
323.5692307692308,139.57121925944534,31.27181028110083,31.27181028110082,282.8293577430406
324.24615384615385,139.25418990014498,31.20589157895395,31.20589157895395,282.8690920653299
324.92307692307696,139.70548903978812,30.887859300011673,30.887859300011673,282.1354156739388
325.6,139.3089609799579,31.0133472841549,31.0133472841549,283.0074043116777
326.2769230769231,139.4332115774089,31.493916635685892,31.493916635685892,282.3994407682939
326.9538461538462,140.0784404704912,31.156869602668742,31.15686960266874,282.45995195028144
327.63076923076926,139.7132642405173,31.046582179896014,31.046582179896014,282.0359934563952
328.3076923076923,139.952075624752,31.235335997353484,31.235335997353484,281.74004270566314
328.9846153846154,139.43703679292904,31.109502570402856,31.109502570402846,282.6409345307679
329.6615384615385,139.90831842796302,31.2988962809284,31.2988962809284,281.843393573408
330.33846153846156,139.75184657278848,31.25682986521689,31.256829865216886,281.6644858448221
331.0153846153846,140.24619964592458,30.989415746401217,30.989415746401217,281.48456099687496
331.69230769230774,140.12579938373614,31.050180882468382,31.050180882468375,281.22660516363726
332.3692307692308,140.46297887431868,31.31927782778113,31.31927782778113,281.065387439104
333.04615384615386,140.27924437883271,31.19672563683674,31.19672563683674,281.5193985998377
333.7230769230769,140.8063689657814,31.187167560068833,31.18716756006883,280.72711744108136
334.40000000000003,141.11620896633198,31.02222498262848,31.02222498262848,280.50674934874917
335.0769230769231,140.40470820078548,31.112552105943728,31.112552105943728,280.6804211788292
335.75384615384615,140.2731720727531,30.996730739983295,30.996730739983292,281.2990389657236
336.4307692307693,140.40840106981497,31.33432614331355,31.334326143313554,280.8433998251563
337.10769230769233,140.61073853475725,30.996971728609488,30.99697172860948,281.30229857415986
337.7846153846154,140.62006368620047,30.68433450571349,30.68433450571349,280.43338149891747
338.46153846153845,141.51131031334842,30.950552502606236,30.950552502606236,280.0740103222612
339.13846153846157,141.9706023889697,31.334021517652676,31.334021517652676,280.01581747567286
339.81538461538463,140.9668670711836,30.935132050879258,30.935132050879254,280.095517263912
340.4923076923077,140.88050779212244,31.13987936041699,31.13987936041699,279.73573757898083
341.1692307692308,141.20791400858195,30.895990413668606,30.895990413668606,279.7913655674435
341.84615384615387,140.85197113362008,30.720734109988147,30.720734109988147,279.7370750264362
342.5230769230769,141.26439222406418,30.92080779129724,30.920807791297243,279.0651642950205
343.20000000000005,140.86462594452263,30.897204547327483,30.897204547327483,279.29735933293483
343.8769230769231,141.58896876548604,30.811642500107585,30.811642500107585,279.83854253696376
344.55384615384617,141.19045352102313,31.000742928201856,31.000742928201852,279.0175611206703
345.2307692307692,141.39490058814226,31.226420295119272,31.22642029511927,279.3109044758499
345.90769230769234,140.79250926166674,30.82717625160536,30.82717625160536,279.1671680514965
346.5846153846154,141.9005678543852,30.94463407369284,30.94463407369284,278.68669075199347
347.26153846153846,142.55196746292722,30.814937071055038,30.814937071055038,278.61102429631063
347.9384615384616,142.28639666974672,30.962599951959636,30.96259995195963,278.27772798055935
348.61538461538464,141.93399076952457,30.854725322177895,30.854725322177895,278.89698813246326
349.2923076923077,142.74050059846158,30.7046162551308,30.7046162551308,279.06653106508617
349.96923076923076,142.39381321130858,31.040692162799353,31.040692162799356,278.8428232628623
350.6461538461539,142.98762494043416,30.972565053847646,30.972565053847646,278.51629330376664
351.32307692307694,143.05216973985299,30.76055800391013,30.760558003910123,278.07866605890405
352.0,142.12674862560013,30.66179702385465,30.66179702385465,278.483057660239
352.6769230769231,141.73442384820817,30.960349387195397,30.9603493871954,278.0067415330131
353.3538461538462,142.05418930321778,30.74159313877753,30.74159313877753,277.7852816198754
354.03076923076924,142.00888387433616,30.931574428011828,30.931574428011828,278.79153827131705
354.70769230769235,142.88348742811448,30.852148950420133,30.852148950420137,277.7976898723391
355.3846153846154,142.74362872136587,30.786310089338887,30.786310089338887,277.73647382210095
356.0615384615385,141.88388085823303,30.707872621017387,30.707872621017387,278.1671003843907
356.73846153846154,142.87594776807015,30.70945857611083,30.709458576110833,277.5771343114111
357.41538461538465,143.0572556286768,30.56515611426641,30.565156114266408,277.12557227991823
358.0923076923077,143.0306927902785,30.568473026841534,30.568473026841534,277.2628154911942
358.7692307692308,143.3708569343289,30.639840090063476,30.639840090063476,277.4426685543125
359.4461538461539,143.23236317891875,30.761300062385676,30.761300062385683,278.04503195331523
360.12307692307695,143.14419009880183,30.81007358818439,30.810073588184395,276.95341329088626
360.8,143.31953710550857,30.66352429501144,30.66352429501144,278.2824211649139
361.4769230769231,143.56039844609703,30.675365328766947,30.67536532876694,277.2534529137366
362.1538461538462,144.32691856984164,30.567917477896607,30.567917477896607,277.19325927338343
362.83076923076925,143.030456666826,30.756674745292784,30.756674745292795,277.45468951651463
363.5076923076923,143.48975629919934,30.405706963211074,30.405706963211074,277.19839641212565
364.1846153846154,143.68958448315928,30.502382238678766,30.50238223867877,277.11336673470635
364.8615384615385,143.93686822770155,30.456068418714818,30.45606841871482,276.5656750638039
365.53846153846155,143.14664590204043,30.785691042866954,30.785691042866944,276.2565873861108
366.2153846153846,144.62249249914578,30.674127459502316,30.674127459502316,276.436724788892
366.8923076923077,144.5162603716132,30.52290962624541,30.52290962624542,276.27597969830833
367.5692307692308,144.25891564982805,30.347582210620157,30.347582210620153,276.41847017669437
368.24615384615385,144.3158676124469,30.58550267315543,30.58550267315543,276.5829331230335
368.92307692307696,144.44388194213073,30.50559409082554,30.505594090825547,275.94852578077376
369.6,144.85883550810695,30.773150181012507,30.773150181012507,276.1221317549179
370.2769230769231,145.2203569902316,30.37298518130038,30.37298518130038,276.17373553430406
370.9538461538462,145.14792963235448,30.486031478889323,30.486031478889313,276.0270759439361
371.63076923076926,144.08010480681793,30.40873403049523,30.408734030495225,276.1977316264463
372.3076923076923,144.4615203644493,30.604447416099408,30.604447416099408,276.4494500472594
372.9846153846154,144.64918090505964,30.329574230754304,30.32957423075431,276.5347443767982
373.6615384615385,144.75217319473825,30.491996778179374,30.491996778179374,276.55485808183084
374.33846153846156,144.9530749326791,30.589222859278124,30.58922285927812,276.04463710594547
375.0153846153846,145.05613827429258,30.188270648923176,30.188270648923176,276.09143167600524
375.69230769230774,145.92753013463127,30.118384400508393,30.118384400508393,275.726540668824
376.3692307692308,134.59522068485455,31.90721209291788,31.907212092917888,273.9635151528262
377.04615384615386,133.9448590910324,31.56144088149218,31.561440881492185,273.5246735007929
377.7230769230769,134.3158849195205,31.57528261447873,31.575282614478734,272.83513249285056
378.40000000000003,130.55210987850455,32.405068271188455,32.405068271188455,272.6121583007659
379.0769230769231,131.3454465209662,32.014638075479255,32.014638075479255,271.6564677283939
379.75384615384615,131.3960084502274,31.915412844873586,31.915412844873586,271.55887230563457
380.4307692307693,131.21823798044315,32.33388428189938,32.33388428189938,271.86486527060606
381.10769230769233,131.6321017749897,32.544446662771776,32.544446662771776,271.8939621448055
381.7846153846154,131.07535963554497,32.34694385155698,32.34694385155698,271.3362231269808
382.4615384615385,132.33010178215625,31.84965698906778,31.849656989067785,271.60576574813103
383.13846153846157,132.14139786735572,32.13957739993679,32.13957739993679,271.8685096949551
383.81538461538463,132.88858774289403,32.307797787317774,32.307797787317774,272.07574750391746
384.4923076923077,132.22923948909818,32.29245864813127,32.29245864813127,272.38658231728795
385.1692307692308,132.92445685640132,31.952580481903134,31.952580481903134,271.8467165791862
385.84615384615387,133.70053272985297,32.00397348584118,32.00397348584118,271.0129826699579
386.5230769230769,136.13656843017327,30.852140006379763,30.852140006379763,272.22533649607044
387.20000000000005,136.11095094574839,31.248456529727957,31.248456529727957,272.0792433427973
387.8769230769231,135.91721946223436,31.48145150518671,31.48145150518671,272.1722794145869
388.55384615384617,136.8013822711407,31.022748914812386,31.022748914812386,271.9359993955016
389.2307692307692,136.69441911371308,31.511227613166362,31.511227613166362,272.44094607827765
389.90769230769234,137.3182282797628,31.464552546270966,31.464552546270973,272.13939178390666
390.5846153846154,137.59992086941594,31.05160753911154,31.051607539111536,272.34814348838273
391.26153846153846,137.58265412859228,31.494533922856373,31.494533922856366,272.18268230517066
391.9384615384616,137.72456150053057,31.18650603067045,31.18650603067045,271.9034792941063
392.61538461538464,138.52548412448522,30.911169056561146,30.91116905656116,272.47251658657814
393.2923076923077,138.22284150979303,31.300975545830063,31.300975545830074,271.9655618930044
393.9692307692308,137.72172469708087,30.92415714579428,30.92415714579428,271.8191615117462
394.6461538461539,138.9864161226891,31.138847708590692,31.138847708590703,271.3115508116609
395.32307692307694,138.10041941656053,31.14189462793208,31.141894627932075,272.3160312557885
396.0,138.00657134286442,30.867923672066986,30.867923672066986,271.4689708889381
396.6769230769231,138.45255522346608,30.910388256082946,30.91038825608295,271.0663622084494
397.3538461538462,137.96273835437006,31.243015430079183,31.24301543007918,271.2582423706644
398.03076923076924,138.7820926749232,30.526985157767758,30.526985157767758,270.876947113079
398.70769230769235,137.92687151524598,31.07153570373232,31.071535703732312,271.4421228662831
399.3846153846154,138.7072288491625,31.059188017370147,31.059188017370143,271.09953166851926
400.0615384615385,138.27426314892406,30.859950079863626,30.85995007986362,270.63467711277275
400.73846153846154,138.17200376307235,31.048510606947666,31.048510606947676,271.4074242621735
401.41538461538465,138.8371339218498,31.014397185727116,31.01439718572711,271.1317983785521
402.0923076923077,138.58637518985486,30.633086868163076,30.633086868163076,271.2633284824276
402.7692307692308,139.45397071826616,30.823053813470004,30.823053813470004,270.45876314160773
403.4461538461539,138.97603184008815,30.84882257982214,30.84882257982213,270.6043693170015
404.12307692307695,139.21193399048755,30.82039969340645,30.82039969340645,270.6785094946598
404.8,139.62343814435536,30.823432723673683,30.823432723673683,271.09925042136706
405.4769230769231,139.92054685981904,31.033828447388803,31.033828447388814,271.84314974970954
406.1538461538462,139.31270110786167,30.44892520870146,30.448925208701464,271.3675385774758
406.83076923076925,139.442019661453,30.5041007103538,30.5041007103538,270.5719694341149
407.5076923076923,140.65526373729452,30.50799417193403,30.50799417193403,270.9290653987435
408.1846153846154,141.08756465166266,30.645383297393924,30.645383297393916,270.03916749507977
408.8615384615385,140.72817818815733,30.42106754142928,30.42106754142928,270.2805481100626
409.53846153846155,140.2452014681132,30.737833990908562,30.73783399090856,269.75983365135374
410.21538461538466,140.76718862504976,30.561275413563997,30.561275413563997,270.2588456706096
410.8923076923077,141.6379089341114,30.64579671385888,30.645796713858882,269.9092738323982
411.5692307692308,140.77521061459484,30.62304006257366,30.62304006257366,270.6637200094923
412.24615384615385,155.65123988736096,27.543172143171603,27.5431721431716,269.97325427870373
412.92307692307696,155.85672883377822,27.600798972857888,27.60079897285789,269.5841096602848
413.6,155.90988396930925,27.660750277886105,27.660750277886105,270.2247995486926
414.2769230769231,156.8052227442862,27.79543079127842,27.795430791278402,270.12899969173185
414.9538461538462,156.5018517373755,27.453321855574956,27.45332185557496,269.91043431396247
415.63076923076926,157.17394282064905,27.623329345434918,27.623329345434918,270.54818848201455
416.3076923076923,156.74639304284457,27.70450118738571,27.704501187385716,270.0409210130196
416.9846153846154,156.90216019187469,27.564889006633333,27.56488900663333,270.3709593043471
417.6615384615385,157.48983923610828,27.855161465451605,27.855161465451605,269.7417698145933
418.33846153846156,156.92557634995413,27.269844175772793,27.269844175772796,269.5642170431398
419.0153846153846,156.80504991422842,27.92524890748453,27.92524890748453,269.9818061254925
419.69230769230774,157.36128373024334,27.778190974323884,27.778190974323895,270.02508186148054
420.3692307692308,157.17655547124113,27.8850252956422,27.88502529564221,270.0510491820542
421.04615384615386,157.21045118811946,27.47629189251706,27.476291892517057,269.7733178014886
421.723076923077,157.52125698166938,27.703092204603557,27.703092204603564,269.0134354128759
422.40000000000003,158.06196467263672,27.09919818781453,27.099198187814522,269.6462583334138
423.0769230769231,157.64668465423222,27.54625350966973,27.54625350966973,269.8748514658737
423.75384615384615,158.2335895630898,27.429391906606597,27.429391906606597,269.43518480250054
424.4307692307693,158.29467623245534,27.364805086921432,27.36480508692143,269.5751255040742
425.10769230769233,158.47006113162809,27.174062500665116,27.174062500665116,268.869677613676
425.7846153846154,158.65591024035692,27.305639095845024,27.30563909584503,269.23834749605425
426.4615384615385,158.60368755004492,26.763583272204116,26.763583272204116,268.9122608108009
427.13846153846157,159.08676717606633,27.201089155673742,27.20108915567374,268.2683276185282
427.81538461538463,159.1035984176937,27.143266352442474,27.14326635244248,268.8158769261492
428.4923076923077,159.2133505178289,26.772294664472568,26.772294664472568,268.8308913712039
429.1692307692308,159.5207924411674,26.883227109459412,26.883227109459412,268.7267044112514
429.84615384615387,159.39327544658542,26.83579963740169,26.83579963740169,268.17728277613867
430.5230769230769,159.60718487274838,26.864882210399806,26.8648822103998,268.671516403718
431.20000000000005,160.0663613585276,26.628182759144142,26.628182759144142,268.40140659743474
431.8769230769231,159.90898376416075,26.267997719968555,26.26799771996856,268.2284088678037
432.55384615384617,160.14446431485612,26.669481409730874,26.669481409730874,268.13001069424723
433.2307692307693,160.58564918842052,26.749212624995714,26.749212624995717,268.23130399333905
433.90769230769234,160.26291099973153,26.393585670015227,26.393585670015234,268.2254194653617
434.5846153846154,161.2183859061864,26.650200837892783,26.650200837892783,267.8221057095294
435.26153846153846,161.41603923906612,26.48812203468471,26.48812203468471,268.19243318390767
435.9384615384616,161.48553447808374,26.602162820041112,26.602162820041112,267.6083097796202
436.61538461538464,161.64780546183363,26.24947870309861,26.24947870309861,267.78107235016955
437.2923076923077,161.285689641626,26.67623931751995,26.676239317519943,267.4371853034521
437.9692307692308,160.63466585738246,26.744368233727357,26.744368233727357,267.9438259661148
438.6461538461539,160.9895325350846,26.421978700419643,26.421978700419643,267.6432717359335
439.32307692307694,161.74905905943717,26.442244121261798,26.442244121261798,267.49077621513817
440.0,161.9119702836417,25.911569584049175,25.911569584049175,267.0286487075324
440.6769230769231,162.5919167081722,26.1084315820842,26.1084315820842,266.9867591361865
441.3538461538462,162.93704323258547,25.969526304426605,25.969526304426605,267.2295345903935
442.03076923076924,163.11431892446166,25.972178407517998,25.972178407517998,266.848738983715
442.70769230769235,162.26765194259704,26.418264451685666,26.418264451685673,267.0361447776065
443.3846153846154,162.50889486677272,26.24943483180261,26.24943483180261,267.0597644105964
444.0615384615385,163.8690432888898,26.157512157938452,26.157512157938445,265.68928354878636
444.73846153846154,163.06462108328375,26.101899958683035,26.10189995868303,266.5699231300117
445.41538461538465,163.37119801543304,25.786084535809692,25.786084535809692,266.19640830270293
446.0923076923077,163.42679450599886,25.950452435188218,25.95045243518823,266.31950572778885
446.7692307692308,163.7882665513471,26.046009202702425,26.04600920270243,266.0880725329797
447.4461538461539,164.15469617212403,25.815180131644738,25.815180131644734,266.648882975228
448.12307692307695,164.4697782516908,25.46948048549255,25.469480485492557,266.80686444705225
448.8,164.26279298762438,25.801706131660136,25.801706131660136,266.1622914495561
449.47692307692313,164.95050461667827,26.056681733084186,26.05668173308419,266.91222684572955
450.1538461538462,164.72443496009956,25.832189781624653,25.832189781624656,265.66074744742184
450.83076923076925,164.90625497728374,25.650474264789494,25.650474264789487,265.32926395420117
451.5076923076923,164.85481497556017,26.004392513135837,26.00439251313583,265.7959644349183
452.1846153846154,165.08383839476068,25.528500583533834,25.528500583533834,264.9139824907094
452.8615384615385,165.1015271658374,25.43082365064426,25.430823650644264,265.5451489691138
453.53846153846155,164.86671323021696,25.62017086205332,25.620170862053307,265.2939818804367
454.21538461538466,166.42225214281015,25.468315065123143,25.468315065123143,265.3778615462957
454.8923076923077,165.94891773605252,25.058008674255326,25.05800867425532,265.45753660220856
455.5692307692308,166.13513599480856,25.169865621937554,25.169865621937554,265.1055854467069
456.24615384615385,166.63730452383956,25.256959385753508,25.256959385753508,265.6729942320587
456.92307692307696,166.71068461400378,25.028589266684225,25.02858926668422,264.9404634736937
457.6,166.51096835205024,25.129421489086866,25.129421489086866,264.71277210331357
458.2769230769231,166.8851734009586,24.767110093675313,24.767110093675306,265.2809639429155
458.9538461538462,166.76330207989264,25.002152017839393,25.002152017839393,264.622854150562
459.63076923076926,166.78095656616753,25.082617974595568,25.082617974595568,264.58445707949915
460.3076923076923,167.24231811266617,25.070308312377616,25.070308312377616,265.14081124561363
460.98461538461544,167.31999397416004,25.038476474362767,25.038476474362767,264.2855110943104
461.6615384615385,167.48136510124354,24.627548410527044,24.627548410527044,264.42546031141745
462.33846153846156,168.2212790105026,24.667434516889056,24.66743451688906,264.0616293733403
463.0153846153846,167.8000652586501,24.86588923323744,24.865889233237443,264.6088472060576
463.69230769230774,168.2020890583619,24.822078836952986,24.82207883695298,264.2975231496849
464.3692307692308,168.10999726654754,24.9165290527119,24.916529052711894,264.26198430315685
465.04615384615386,168.38605205859824,24.600425912055364,24.600425912055364,264.30646475578766
465.723076923077,168.50730861573746,24.524788189556226,24.52478818955622,263.38410753958647
466.40000000000003,169.26643952788652,24.636342752090155,24.636342752090147,263.63243628030114
467.0769230769231,169.15693125835801,24.512553119322632,24.512553119322632,263.6111535990115
467.75384615384615,169.49847613267977,24.56313217128124,24.563132171281236,263.45671443868616
468.4307692307693,169.84371982908638,24.429527550282913,24.42952755028292,263.51621966185576
469.10769230769233,170.03540391298588,24.05525410696617,24.055254106966167,263.79156735079783
469.7846153846154,170.35620021089554,24.367794689193165,24.36779468919317,263.3739661031219
470.4615384615385,170.30820068720737,24.020510848951275,24.020510848951275,262.8123051024743
471.13846153846157,170.95882903858214,24.166921832264954,24.16692183226495,263.15619512345506
471.81538461538463,170.79246468218938,24.201297974645833,24.201297974645833,262.71594223795495
472.4923076923077,171.2024926832036,24.217427008094134,24.217427008094138,262.5801981942393
473.1692307692308,171.95553146144863,24.014926780650207,24.014926780650207,262.67285919396755
473.84615384615387,171.05859100035977,24.049927453308754,24.049927453308747,263.29794221432826
474.5230769230769,171.94219102994256,23.95529551721159,23.95529551721159,263.3463280247441
475.20000000000005,170.81396987407666,23.910353063781155,23.910353063781155,262.62138283243337
475.8769230769231,172.39818076342561,23.594115073306074,23.594115073306074,262.5399210072739
476.55384615384617,172.61697015174664,23.929112665830534,23.929112665830523,262.72612428325004
477.2307692307693,172.78324890984956,23.519604786733957,23.519604786733957,261.9955466896955
477.90769230769234,172.47807312644247,23.422091679847618,23.422091679847618,262.6349093263708
478.5846153846154,173.39251567516138,23.61593297844677,23.61593297844677,262.76285494104894
479.26153846153846,174.04590633860536,23.501395437281577,23.501395437281577,262.59351187659576
479.9384615384616,172.9229654094931,23.507390437970955,23.507390437970965,262.443834173456
480.61538461538464,173.33040319367356,23.345446451654528,23.345446451654528,261.81003665999134
481.2923076923077,173.46284089059225,23.500057538568434,23.500057538568434,261.81020338920126
481.9692307692308,173.549741253031,23.14369119305167,23.14369119305167,261.6140953785199
482.6461538461539,173.96699035919332,23.453343856475342,23.453343856475342,261.8453661127696
483.32307692307694,174.61201137213146,23.218103526893508,23.218103526893504,261.33454564217925
484.0,174.1851345432897,23.183887348653293,23.183887348653293,261.1319242722949
484.6769230769231,174.64322873289814,23.178717465480293,23.1787174654803,261.21700822658204
485.3538461538462,174.19427056375207,23.171877921248534,23.171877921248537,261.358163304497
486.03076923076924,174.97657138230446,22.99782228420962,22.99782228420962,261.1174094285833
486.70769230769235,175.41250518547315,23.21312408494263,23.213124084942645,261.17668625958436
487.3846153846154,175.61251100362318,22.815695099126064,22.81569509912606,260.56042064214444
488.0615384615385,175.88440178023617,22.94858560860214,22.948585608602144,260.59211214244027
488.7384615384616,176.17544504731518,22.826658092781898,22.826658092781894,260.34894643851396
489.41538461538465,176.12557529295813,22.736106401390916,22.736106401390916,260.7582785712241
490.0923076923077,176.3398883741968,22.584353515756487,22.584353515756487,260.8686218574161
490.7692307692308,177.10849579196676,22.646014892511115,22.646014892511108,260.5835823578237
491.4461538461539,176.8855994252469,22.728840398077086,22.728840398077086,260.19067848120824
492.12307692307695,177.17948035753574,22.532322940093575,22.53232294009357,260.114795199338
492.8,176.71598400970223,22.628654574363473,22.62865457436348,260.42588512990324
493.47692307692313,177.87915332005443,22.4137610236343,22.413761023634304,260.2843152447652
494.1538461538462,177.93947869084937,22.34875078634698,22.348750786346987,259.8695441803761
494.83076923076925,177.94427512480672,22.334921530849517,22.334921530849517,259.92493933174984
495.5076923076923,178.8681874726889,22.177323003796673,22.177323003796676,259.69626866857993
496.1846153846154,178.47349868156977,22.310890370228616,22.310890370228616,259.67823788726594
496.8615384615385,178.94616800360947,22.484067644462833,22.484067644462826,259.6200533083429
497.53846153846155,178.897959555262,22.04933938396444,22.049339383964444,259.6330542825973
498.21538461538466,179.1178312705833,22.31170543925006,22.31170543925006,259.71390912874887
498.8923076923077,178.78721096476914,22.010296273912275,22.010296273912275,259.4349869000486
499.5692307692308,179.35518718207996,21.946433219336566,21.946433219336566,259.4195815976807
500.2461538461539,179.12059296964384,22.100874610732554,22.10087461073255,259.6427317478513
500.92307692307696,179.38521732284065,22.033377723630707,22.033377723630707,259.9219638381458
501.6,180.04386734472664,21.832271584147293,21.832271584147293,259.10491759392994
502.2769230769231,179.9803419763181,21.84548986468158,21.845489864681586,258.75225795455384
502.9538461538462,180.25319882871253,21.835502425132475,21.835502425132475,258.89318427665347
503.63076923076926,180.60720890404284,21.758106667778033,21.758106667778033,258.8281934903523
504.3076923076923,181.24277085977278,21.689080099074065,21.689080099074072,259.06579342623957
504.98461538461544,181.0372441315069,21.513247721259777,21.513247721259777,258.1416922136524
505.6615384615385,181.2729341947072,21.681524600795257,21.68152460079525,258.79176048921795
506.33846153846156,181.67136204007159,21.58764372380428,21.587643723804284,258.23490033867495
507.0153846153846,181.7096681846142,21.513056203012965,21.513056203012972,258.11662767746077
507.69230769230774,181.72628376622833,21.62901814805647,21.62901814805647,258.6173540683347
508.3692307692308,182.446721477852,21.46273413007881,21.462734130078815,258.3347597444429
509.04615384615386,182.31095210559997,21.470424951653662,21.47042495165366,257.6292458187098
509.723076923077,182.0963659473315,21.59069247890727,21.590692478907272,257.68532150395697
510.40000000000003,182.90120847931516,21.332960745518054,21.332960745518054,258.01670523428817
511.0769230769231,183.2815922882423,21.253939056560775,21.25393905656077,257.3555643604046
511.75384615384615,183.11969447511558,21.077396987113424,21.077396987113417,257.47845864052033
512.4307692307692,183.50189703260688,20.98756407505488,20.98756407505488,257.4999041543109
513.1076923076923,183.13790297870494,21.23559389203473,21.235593892034736,257.7369404329294
513.7846153846154,183.85482431887854,21.088827901880695,21.088827901880695,257.81279755460884
514.4615384615385,184.69345795905303,21.263066011987505,21.2630660119875,257.5877618969404
515.1384615384616,184.67258842146467,20.97944867058149,20.97944867058149,257.14456362026465
515.8153846153847,185.00388673994817,20.770154256898422,20.77015425689843,256.96253385717097
516.4923076923077,184.4256578856028,20.761474606778137,20.76147460677814,256.6722926264354
517.1692307692308,185.3710503143357,20.806826957064374,20.806826957064366,257.06751447695336
517.8461538461539,185.52547674194506,20.71496050389227,20.71496050389227,256.8610037671524
518.5230769230769,186.00712988292977,20.555812812239836,20.555812812239836,256.77856742427866
519.2,195.1351156041721,19.0260003663801,19.026000366380096,252.82714061455027
519.876923076923,196.01120309831032,18.628054347901124,18.628054347901124,253.22864959564865
520.5538461538462,195.1374689590605,18.517692744942128,18.517692744942128,253.4608067811973
521.2307692307693,195.85392221724302,18.433554645094787,18.433554645094794,252.99173266974566
521.9076923076923,195.85701715401993,18.571025005435988,18.571025005435988,252.79345537549366
522.5846153846154,195.96676155647634,18.49031855475544,18.490318554755444,252.9352899130608
523.2615384615385,196.698265995446,18.448927504675375,18.448927504675375,252.80838482202657
523.9384615384615,196.24651596182903,18.35928394654835,18.35928394654835,252.91785463913456
524.6153846153846,196.90464735420895,18.41837048449671,18.41837048449671,252.09043155577484
525.2923076923078,196.7709393340889,18.71903180345665,18.71903180345665,252.2234021734098
525.9692307692308,197.49808195061388,18.169453319424594,18.169453319424594,251.04237566543742
526.6461538461539,197.86587882331898,18.403666734298305,18.403666734298305,251.55637679209016
527.323076923077,197.83856337865743,18.20889239335594,18.20889239335594,251.39437668510303
528.0,197.92843933067834,17.940916311755387,17.94091631175539,251.7615843353771
528.6769230769231,198.33243067400616,18.236035156764984,18.236035156764988,251.69334825739492
529.3538461538462,198.2012119334835,17.92782587930865,17.92782587930865,251.5391782514563
530.0307692307692,198.68047216969066,18.052052985051496,18.052052985051493,251.51718439170202
530.7076923076924,198.65167799479175,18.074429075572585,18.07442907557258,251.350102844201
531.3846153846154,198.8992952730747,17.799623978537735,17.799623978537735,251.0763585574005
532.0615384615385,199.47463433782,18.091513380752286,18.091513380752286,251.13612068233607
532.7384615384616,199.7481934488496,17.777488141926405,17.777488141926405,251.00642329123735
533.4153846153846,199.90068979703432,17.58213681963684,17.58213681963684,250.75425181364918
534.0923076923077,200.24940685063711,17.876889624158373,17.876889624158377,250.5032897017798
534.7692307692308,200.6950605879733,17.51744420199732,17.51744420199732,250.890466995827
535.4461538461538,200.9599834466217,17.52912424910038,17.52912424910038,250.66091416732124
536.123076923077,200.7822509812035,17.454649097684573,17.454649097684573,250.1288385758308
536.8000000000001,200.90186383751197,17.46265745934539,17.462657459345394,249.9975112177211
537.4769230769231,201.3625368572942,17.38671609729676,17.38671609729676,249.8251433006157
538.1538461538462,201.84176051144718,17.38338619934708,17.383386199347076,249.99731158436234
538.8307692307693,202.16727895456881,17.482784412713272,17.482784412713272,250.0653156758475
539.5076923076923,201.6317475686958,17.13903790046853,17.13903790046853,249.6388019796363
540.1846153846154,202.3725330954903,17.187980868493202,17.187980868493202,249.21909939613047
540.8615384615385,202.485835539279,17.240028875401993,17.240028875401997,249.44911195793946
541.5384615384615,202.92342237280965,17.082543959989188,17.082543959989188,249.29388114113448
542.2153846153847,203.27140009222063,17.12320379686563,17.123203796865635,249.3348670589362
542.8923076923077,203.3768249569255,16.95039727847323,16.950397278473233,249.79347127672762
543.5692307692308,203.48973469455984,16.922374960929595,16.922374960929595,249.1544808560681
544.2461538461539,203.52372934218374,16.861993140800895,16.861993140800895,249.1243020027883
544.9230769230769,204.8991535936375,16.758910486424508,16.758910486424504,248.8921656575792
545.6,204.5948788384532,16.667621846506215,16.667621846506215,248.64807153762843
546.2769230769231,204.77368554242108,16.495310361304274,16.495310361304274,248.8151832406278
546.9538461538461,204.88519510740392,16.485715043875192,16.485715043875192,248.56167817882476
547.6307692307693,205.17278917185988,16.542008790455785,16.542008790455785,248.18060240625485
548.3076923076924,205.3409150398513,16.366319167507715,16.366319167507715,248.3964350816111
548.9846153846154,205.69842424050182,16.712524456960505,16.712524456960505,248.1211731907667
549.6615384615385,205.61640707298974,16.497936859763147,16.497936859763147,247.98784936583243
550.3384615384616,205.49792090586294,16.633566306614362,16.63356630661437,247.50323917052535
551.0153846153846,206.34311231664472,16.501100410714745,16.501100410714745,247.62994136619287
551.6923076923077,206.6818506678862,16.343398041890943,16.343398041890946,247.64413868584967
552.3692307692309,206.99537025863714,16.36065493244654,16.36065493244654,247.9253285321494
553.0461538461539,206.77052880596045,16.440438653843742,16.440438653843746,247.49524429385016
553.723076923077,207.48486402394337,16.339100297878154,16.33910029787815,247.67448480980096
554.4,207.44960083697123,16.271053518706093,16.27105351870609,247.2704544723237
555.0769230769231,207.53804496479876,15.968504861941215,15.968504861941218,247.47123552047964
555.7538461538462,207.3377522619093,16.312150491623783,16.312150491623786,246.87294186975407
556.4307692307692,208.26344808628124,15.98968833887262,15.989688338872623,247.05796675938495
557.1076923076923,208.3928082956554,15.996608363729145,15.996608363729148,246.9076171636451
557.7846153846154,208.63962841888562,16.12138387953021,16.12138387953021,247.20334467874372
558.4615384615385,209.1150369787839,15.929545085768508,15.929545085768504,246.8828023646099
559.1384615384616,209.82097939202757,15.781820274691635,15.781820274691635,246.553513809469
559.8153846153847,209.50353000162212,15.783588497893572,15.783588497893579,246.58442164382325
560.4923076923077,209.84515397677498,15.838503400952014,15.838503400952014,246.76418458737467
561.1692307692308,209.95288039810234,15.592733564229226,15.59273356422923,246.79801422605595
561.8461538461539,210.39359927034224,15.508242364013137,15.508242364013137,246.39400206888843
562.5230769230769,210.79999857295851,15.726808693207591,15.726808693207591,246.21694805493803
563.2,210.9492607604619,15.617206469233842,15.617206469233842,246.37912124935403
563.8769230769232,211.0649800109023,15.734975065552474,15.734975065552478,246.10124334036576
564.5538461538462,211.07867721189277,15.318054686126155,15.318054686126155,245.93869755783453
565.2307692307693,211.7071346127902,15.447039632633052,15.447039632633048,246.23385561040868
565.9076923076923,211.80820362601727,15.47865546264291,15.47865546264291,245.54790165985935
566.5846153846154,212.08400922442624,15.294532597768395,15.294532597768395,245.56903537488787
567.2615384615385,212.34112345662993,15.15278544844664,15.15278544844664,245.47170343357783
567.9384615384615,212.36384575832264,14.991830934550618,14.991830934550615,245.1975578220502
568.6153846153846,212.9764349361317,15.317888621264675,15.317888621264675,245.4466801076372
569.2923076923078,213.3077611922572,15.05012261350218,15.050122613502175,245.45857050653362
569.9692307692308,213.4729953079796,14.928755982045057,14.928755982045061,244.92062776058125
570.6461538461539,213.66064592921626,14.936452833370664,14.936452833370666,245.21374846050162
571.323076923077,213.97224645124356,14.817407928574202,14.817407928574195,245.54708769845305
572.0,214.29405976088034,14.940869981067065,14.940869981067062,245.11491494638437
572.6769230769231,214.0413025916491,14.977368197461077,14.977368197461074,245.1136151397963
573.3538461538462,214.10554624000798,14.879204763689721,14.879204763689717,245.0566245880943
574.0307692307692,214.54130159256445,14.71111415591479,14.71111415591479,244.94437793824235
574.7076923076924,214.56042815630823,14.605471162974766,14.605471162974764,244.78187231378635
575.3846153846155,214.97945168034025,14.710084637828778,14.710084637828784,244.26655701793786
576.0615384615385,215.36159097078473,14.730806297251911,14.730806297251913,244.79656118396974
576.7384615384616,215.38206107170433,14.5082440224514,14.5082440224514,244.3193242227253
577.4153846153846,215.6215055020517,14.682544306509591,14.682544306509588,244.03479254939126
578.0923076923077,215.58064501298543,14.635411456386043,14.635411456386047,244.132865464657
578.7692307692308,215.4219551498826,14.493276557407555,14.493276557407553,243.24444844056472
579.4461538461538,216.36370503058293,14.331272328867051,14.331272328867051,243.3341698635689
580.123076923077,216.36261528142316,14.28374682863321,14.283746828633209,243.375869048234
580.8000000000001,216.79929585301494,14.216128653943613,14.216128653943613,243.42028777593288
581.4769230769231,216.6150802620037,14.50141685955241,14.501416859552414,243.15902536428078
582.1538461538462,216.82536309241857,14.193401132508807,14.193401132508807,243.1029900293854
582.8307692307693,217.01294977222776,14.540230279410089,14.540230279410086,243.07185368471949
583.5076923076923,217.28077488524477,14.10595009622346,14.10595009622346,242.8891059263808
584.1846153846154,217.99607264663464,14.125900977946943,14.125900977946943,242.65886108625511
584.8615384615385,218.15714370566477,14.180995413756362,14.180995413756362,242.54863245478015
585.5384615384615,218.36447027409338,14.088653795420703,14.088653795420704,242.35894559927516
586.2153846153847,218.45714495392014,14.21648055048479,14.21648055048479,242.3401754365931
586.8923076923078,218.17032258346583,14.045717291171783,14.045717291171782,241.94316026433796
587.5692307692308,218.548587722251,13.932503157742849,13.932503157742845,242.1497809922931
588.2461538461539,218.96669858932765,13.751184652566746,13.751184652566746,242.5167266192498
588.9230769230769,219.18132457895572,13.797283116321596,13.797283116321596,242.1925783972512
589.6,219.42694541697767,13.990597775987323,13.990597775987323,241.4106403702842
590.2769230769231,219.6096949963204,13.696974925306783,13.696974925306781,241.60116504805984
590.9538461538461,220.21114472084653,13.558375021081021,13.558375021081023,241.72634373298283
591.6307692307693,220.11845719053773,13.47761325266299,13.47761325266299,241.42385117500547
592.3076923076924,220.314431064369,13.505571660523591,13.505571660523591,241.47814505412032
592.9846153846154,220.8572500822256,13.437265046574057,13.437265046574055,241.30795331823276
593.6615384615385,220.83507956553873,13.312693136057963,13.312693136057966,240.8198904016417
594.3384615384616,221.0969884771231,13.30844634683748,13.308446346837481,240.73688586848553
595.0153846153846,221.41401751646129,13.399990022076546,13.399990022076546,240.01892270151222
595.6923076923077,221.31538994222683,13.187021162863028,13.187021162863028,240.98101768185444
596.3692307692309,221.80740363997927,13.240322659416684,13.240322659416684,240.47619809632963
597.0461538461539,221.94500110775215,13.103971974488875,13.103971974488875,240.64062766914353
597.723076923077,222.21637462968457,13.219004816125747,13.219004816125747,239.9695482619722
598.4,222.07982552288365,13.022565386857048,13.02256538685705,240.85580310163436
599.0769230769231,222.53097504393514,12.94212501785212,12.94212501785212,240.01257498134117
599.7538461538462,222.7841379236773,13.105418907902195,13.105418907902195,240.11915400876254
600.4307692307692,222.67313033392415,13.11185235500694,13.111852355006942,240.04728786061216
601.1076923076923,222.87871717452862,13.088857571614342,13.088857571614346,240.13509405541362
601.7846153846154,223.41322631859762,12.744198123537375,12.744198123537375,239.8286259949486
602.4615384615385,223.71586910198587,12.982953341224535,12.982953341224535,239.17900488967624
603.1384615384616,223.41296998607552,12.933397433629366,12.933397433629366,239.33416434024008
603.8153846153847,223.65634011729693,12.82113821732685,12.821138217326855,239.53501299735814
604.4923076923077,224.60836799126122,12.815285168379072,12.815285168379075,238.74986221857498
605.1692307692308,224.0179739526345,13.016781916255354,13.016781916255349,238.4895993145369
605.8461538461539,224.29795586643553,12.337011151823992,12.337011151823996,238.46579199022622
606.5230769230769,225.25464802608226,12.45986317593616,12.45986317593616,238.65614729167407
607.2,225.23842824287982,12.561067615969295,12.561067615969295,238.41502088867526
607.8769230769232,225.05373227510313,12.632808656695317,12.632808656695317,238.08840252197945
608.5538461538462,225.261554345727,12.625957730310098,12.625957730310102,237.99458821932967
609.2307692307693,226.02666986089127,11.816323733451584,11.816323733451588,238.14887288820188
609.9076923076923,225.84801485224799,12.533652885500501,12.533652885500507,237.3254815762311
610.5846153846154,225.9202488108899,12.289603074669449,12.28960307466945,237.79747791005116
611.2615384615385,226.3690973909027,12.425302337409493,12.42530233740949,237.3802280487566
611.9384615384615,226.29065217439089,12.124345062742842,12.124345062742844,237.77035680892848
612.6153846153846,226.6815090151918,11.790219893214315,11.790219893214319,237.87617983257996
613.2923076923078,227.064203380393,12.173074670436357,12.17307467043635,237.70289835037147
613.9692307692308,227.2661168284119,12.032499021740339,12.032499021740339,237.2053064009164
614.6461538461539,227.55743754853586,12.101996637407877,12.101996637407877,237.2782861652933
615.323076923077,227.80851470038354,11.791152803084831,11.791152803084831,237.3292835918249
616.0,228.01334881553166,11.820731110909692,11.820731110909687,237.103628096259
616.6769230769231,227.9154127244516,11.985598887079133,11.985598887079133,236.9162152039936
617.3538461538462,228.7164211935288,11.818832912626744,11.818832912626739,236.83123446901655
618.0307692307692,228.47699017637197,11.789895167612768,11.789895167612768,236.3016402143251
618.7076923076924,228.76728279996,11.850539960273728,11.850539960273728,236.03438755019357
619.3846153846155,229.08731867690608,11.92934953604544,11.929349536045436,235.90609532641972
620.0615384615385,229.53205837426754,11.85338303904284,11.853383039042841,235.70327492852292
620.7384615384616,229.68178563167172,11.689097540257631,11.68909754025763,235.54172738741917
621.4153846153846,229.59171609228605,11.69410585835277,11.69410585835277,235.56127932403203
622.0923076923077,230.04371356964708,11.790387833437752,11.790387833437755,235.58718916722583
622.7692307692308,229.8616575292657,11.72333570476269,11.723335704762691,235.707798669001
623.4461538461538,230.51945441180834,11.55516999091301,11.555169990913017,234.56604199661425
624.123076923077,230.94302887313958,11.518851078176098,11.518851078176096,235.27925233419998
624.8000000000001,230.89714568419672,11.493467250449521,11.493467250449525,234.80796942765366
625.4769230769231,231.09762764988088,11.342850906969836,11.342850906969836,234.94292725087885
626.1538461538462,231.10336650585919,11.295588892904794,11.295588892904792,234.89020062845697
626.8307692307693,231.05156650094943,11.327727328598138,11.327727328598137,234.76052777595945
627.5076923076923,231.66330244407953,11.137299502782989,11.137299502782989,234.91831139191046
628.1846153846154,232.00173295309014,11.029207489062221,11.029207489062221,234.75612594801194
628.8615384615385,232.11287165047258,11.148235817662146,11.148235817662142,234.4142416024744
629.5384615384615,232.0536602015536,11.224566697374353,11.224566697374351,234.4883638104764
630.2153846153847,232.0691415019271,11.228550878276472,11.228550878276478,234.1164479780463
630.8923076923078,232.48607551470556,10.931892537087363,10.931892537087363,234.14568292461232
631.5692307692308,233.00211245866944,10.820779936595876,10.820779936595876,233.80657925102457
632.2461538461539,232.67142181250145,11.001536679037702,11.001536679037702,233.65862666342312
632.9230769230769,232.84376484963855,10.648637766530582,10.64863776653058,233.7856375594706
633.6,233.541869221806,10.67768620743334,10.677686207433341,233.34755954798365
634.2769230769231,233.34885283219936,10.830585054922706,10.830585054922707,233.67034289177255
634.9538461538461,233.65987826554948,10.944115000035255,10.944115000035257,232.99185999486633
635.6307692307693,233.62544508196663,10.584314830139618,10.584314830139618,233.61506596892946
636.3076923076924,234.2510650046762,10.661197149983185,10.661197149983188,233.26638548496496
636.9846153846154,234.45217128653974,10.618652877702711,10.618652877702713,232.7570990325442
637.6615384615385,234.8589252770284,10.605090149424028,10.605090149424031,232.51348948458556
638.3384615384616,234.62994692759847,10.612692335877586,10.612692335877586,232.56846716277616
639.0153846153846,234.6721576658578,10.494401760060006,10.494401760060006,232.1458619767886
639.6923076923077,235.5947199881225,10.448549210918111,10.448549210918111,232.55957683622168
640.3692307692309,235.3148697828267,10.401704139530738,10.401704139530738,232.13109845674558
641.0461538461539,236.08514965203838,10.204562198703083,10.20456219870308,232.34169455587772
641.723076923077,235.8247581904662,10.423723636471934,10.423723636471937,231.6761637328017
642.4000000000001,236.30857722109903,10.086869494204967,10.086869494204967,231.71349516837205
643.0769230769231,236.46816554044136,10.14117762411476,10.141177624114762,231.76544632953107
643.7538461538462,236.77068550976585,10.162856522937252,10.162856522937252,231.5452327423513
644.4307692307692,237.05716283807973,10.07493512866624,10.07493512866624,231.6924748754279
645.1076923076923,236.90900290798612,9.729194505148092,9.729194505148095,231.93013922594454
645.7846153846154,236.89444426001262,10.024403809009689,10.024403809009689,230.92670773236762
646.4615384615385,237.44140141906053,9.863299035661585,9.863299035661585,231.23739002606465
647.1384615384616,237.72546374024802,10.15546665294796,10.155466652947958,230.93521196103026
647.8153846153847,237.9391619527175,9.898518352808589,9.898518352808589,230.7977791443979
648.4923076923077,238.03200117595492,10.078340373108494,10.078340373108496,230.36151189213277
649.1692307692308,238.09305874856435,9.727005219048875,9.727005219048872,230.97182844070173
649.8461538461539,238.54870847661113,9.869205613377199,9.869205613377199,230.17067233691785
650.5230769230769,238.5371135625564,9.841250358354417,9.841250358354417,229.8675608199653
651.2,238.8134804929332,9.837867374887608,9.837867374887608,230.02013484465886
651.8769230769232,238.93326514666987,9.663171977719236,9.663171977719236,229.544480986924
652.5538461538462,238.78172729178564,9.765335764139323,9.765335764139323,229.1893024333007
653.2307692307693,239.01458403288092,9.391434623371547,9.391434623371543,228.95902352014272
653.9076923076924,239.5371610412863,9.621863322379173,9.62186332237917,229.25227215049762
654.5846153846154,239.51367687116294,9.601295416719296,9.601295416719292,229.65259685301234
655.2615384615385,239.55208953614292,9.615292135928144,9.615292135928142,229.15302337115898
655.9384615384615,239.22565995378753,9.480323315992774,9.480323315992775,229.27964285876195
656.6153846153846,239.10831407235233,9.439211364093604,9.439211364093605,229.15064954180463
657.2923076923078,239.35010352538077,9.592243495532182,9.592243495532186,228.8070272095166
657.9692307692308,239.51657855897486,9.582326181163056,9.582326181163056,229.01707011017425
658.6461538461539,239.1704421504803,9.65092018506295,9.65092018506295,229.27188057230697
659.323076923077,239.33820227760168,9.555403437337832,9.555403437337832,229.53642706019946
660.0,239.20874310808736,9.610448690827855,9.610448690827855,229.09927650759613
