z in mm,sigma xx in mm2,sigma xy in mm2,ysigma yx in mm2,sigma yy in mm2
0.0,115.34774117341824,10.94149883944154,10.941498839441536,106.82988781861286
0.6162464985994398,113.64174921187657,11.336421836088142,11.336421836088142,108.23267081198374
1.2324929971988796,115.12891305217227,11.162314965885438,11.162314965885438,107.69150010876653
1.8487394957983194,115.23409657189056,11.350933790859042,11.350933790859042,110.21108574290918
2.4649859943977592,114.65305178379501,11.957523136931227,11.957523136931233,108.81098028048103
3.081232492997199,114.12154300760972,10.840054978572452,10.840054978572452,106.18169986317055
3.697478991596639,114.86285114631167,11.389849359369551,11.389849359369551,106.92031961924833
4.313725490196079,114.6407923479682,11.426536630786345,11.426536630786345,108.52734130218437
4.9299719887955185,113.8403322757964,12.437512888731124,12.437512888731124,109.46319762526024
5.546218487394958,112.73892730626504,11.259097270348303,11.259097270348303,106.48131238720225
6.162464985994398,112.75729683910532,10.293631478883194,10.293631478883194,106.70023707728252
6.778711484593838,114.4006885749845,10.379090071904873,10.379090071904873,108.18421796655409
7.394957983193278,114.80301433930268,10.825486252172698,10.825486252172698,109.77037956557264
8.011204481792717,114.23627690527609,11.868916706360912,11.868916706360904,108.77852299015818
8.627450980392158,113.18362778499963,12.527663658464158,12.527663658464165,109.39338049839071
9.243697478991598,114.13239148396931,12.24368697778882,12.24368697778882,108.66036550057417
9.859943977591037,115.6507952386807,11.884382208066148,11.884382208066148,110.11325133927357
10.476190476190476,117.8585633837078,12.747699444230305,12.747699444230301,113.49464053990125
11.092436974789916,115.93107129370647,12.177096475399981,12.177096475399978,111.62877174477656
11.708683473389357,114.88311905345432,12.551062109350275,12.551062109350275,110.67373533086887
12.324929971988796,116.43392082517492,12.502061660782154,12.502061660782154,111.68569203060854
12.941176470588236,117.06839657265292,12.266402159349528,12.266402159349528,110.17720085159667
13.557422969187677,116.60797648375014,12.619884382661452,12.619884382661448,113.23867600324623
14.173669467787116,115.62788905881087,12.508519843515328,12.508519843515328,113.56361591995062
14.789915966386555,117.7601964035157,13.216936335095745,13.216936335095742,113.07257795967377
15.406162464985995,118.78377678093368,14.134103809837862,14.134103809837866,114.18130655044875
16.022408963585434,117.4936363402501,12.076129725796344,12.076129725796344,115.27743449460333
16.638655462184875,114.45371679107963,11.638994147682826,11.638994147682826,113.96774363614855
17.254901960784316,116.22548687299265,12.90749466508657,12.907494665086565,111.47697039283557
17.871148459383754,118.97972180171205,14.62753708162547,14.62753708162546,116.78349264377748
18.487394957983195,117.90546313449596,13.911941496452137,13.911941496452137,116.80698123795452
19.103641456582633,117.75483889231809,15.09008447496666,15.090084474966657,117.33332611797228
19.719887955182074,118.03076764032174,15.03829642876297,15.03829642876297,117.17827041260594
20.336134453781515,117.20437032696766,13.26509607264778,13.26509607264778,115.11703224661345
20.952380952380953,119.67711291503349,13.763605914303154,13.76360591430315,116.9417358408661
21.568627450980394,116.58452701594189,13.725736357649437,13.725736357649437,116.58405120098293
22.18487394957983,116.82775368404705,13.493620031463559,13.493620031463562,115.74731841515016
22.801120448179272,117.37955500177407,13.589558883512193,13.589558883512192,115.05533236637447
23.417366946778714,119.00042303159448,14.089607019731048,14.089607019731051,115.10391745214571
24.03361344537815,115.24502813033058,14.002194138151097,14.002194138151093,118.11543104974793
24.649859943977592,117.92191701948973,14.520469179044614,14.520469179044614,118.27814684898891
25.266106442577033,120.21620520035034,14.039637939226628,14.039637939226623,116.43440215548758
25.88235294117647,117.0525257707933,13.984746805766957,13.984746805766957,116.20882340779501
26.498599439775912,117.06793715076266,13.52052300489366,13.52052300489366,112.92304933049984
27.114845938375353,117.42022730244851,13.483207573112193,13.483207573112193,116.34028586634727
27.73109243697479,117.16822932536554,13.747590732447536,13.747590732447541,116.20971955803437
28.347338935574232,118.31692741021288,14.885553790369471,14.885553790369471,117.58920595977861
28.96358543417367,119.4649779371627,14.635645704228084,14.635645704228084,118.78734138954181
29.57983193277311,117.54263264192507,13.281722054560465,13.281722054560463,115.45925156551951
30.196078431372552,119.15596420443477,14.706052671978215,14.706052671978215,117.50575435416495
30.81232492997199,118.8725554269107,14.271424120509252,14.271424120509254,119.3371104096812
31.42857142857143,119.87286895934339,14.852801767153588,14.852801767153588,120.3180575839145
32.04481792717087,119.53528560719825,15.127912711658436,15.127912711658437,122.11595897525947
32.66106442577031,116.4711426934799,15.096559898075357,15.096559898075357,120.99275254815365
33.27731092436975,115.69330637019844,14.986452152326056,14.986452152326052,120.17570362074146
33.89355742296919,118.15414508235567,14.899568436708686,14.899568436708686,119.88799459344153
34.50980392156863,119.42625073005945,15.092472212312298,15.092472212312295,119.72726195663931
35.12605042016807,117.42863380012415,14.461880457235823,14.461880457235823,119.19140858457058
35.74229691876751,118.33399007759779,14.74237987614135,14.74237987614135,120.84703833772912
36.358543417366946,118.53053166474436,13.741964273736356,13.741964273736347,118.13959046084673
36.97478991596639,118.11846120884877,13.928332305138106,13.928332305138106,118.81761237289128
37.59103641456583,119.78026544290229,14.852326187665321,14.852326187665321,122.23762696393683
38.207282913165265,118.13514076607875,13.805590271296456,13.80559027129645,119.89412901698564
38.82352941176471,119.47726270512403,15.300807461977218,15.300807461977218,121.20542326739074
39.43977591036415,119.41258169853671,17.179845493214852,17.179845493214852,126.46355368012566
40.056022408963585,117.76045732691524,16.80173249014894,16.80173249014894,122.51578182588848
40.67226890756303,120.33274066959508,13.881038080191754,13.881038080191757,118.09372532229338
41.28851540616247,120.41687813360326,16.031472703947426,16.031472703947426,122.93679763394498
41.904761904761905,117.40415512165302,15.441139969135246,15.441139969135246,120.95688853934847
42.52100840336135,118.3886085255658,16.28142232639681,16.28142232639681,121.14206021152329
43.13725490196079,118.48082922008136,15.475373570272602,15.475373570272605,121.83290802724929
43.753501400560225,118.18663211126162,15.250420297842341,15.250420297842341,122.38901825769199
44.36974789915966,120.95801387719939,16.508196689000773,16.508196689000776,125.32454177819729
44.98599439775911,117.38431493777189,16.423052387025546,16.42305238702555,127.01506850280636
45.602240896358545,119.91197972595455,16.057348515838907,16.057348515838896,123.56615743215286
46.21848739495798,119.07230843492323,15.838656080135905,15.838656080135905,125.62403008381276
46.83473389355743,120.34871421546534,15.92245191880234,15.92245191880234,125.78198730883457
47.450980392156865,118.30979737424386,17.308066445643423,17.308066445643423,129.68550199250467
48.0672268907563,121.92380262919622,17.02198677802916,17.02198677802916,129.46806405404914
48.68347338935575,120.03958114145992,16.039929016279956,16.039929016279956,127.29404147651589
49.299719887955185,124.5272844722324,16.528660664380443,16.528660664380443,129.80749885258913
49.91596638655462,121.65807203656577,16.97379840460246,16.97379840460246,128.55979061414197
50.53221288515407,123.45623061128538,18.401378060495784,18.401378060495784,128.67428150501826
51.148459383753504,120.15151984014052,17.70503464427628,17.70503464427628,130.53426255751572
51.76470588235294,121.42779854445757,17.70788723054973,17.70788723054973,131.0126750808229
52.38095238095239,119.37732966671618,16.09712111459354,16.09712111459354,128.5682506610822
52.997198879551824,119.42898302143655,17.1468539817157,17.1468539817157,130.26391970177366
53.61344537815126,120.75044874955157,17.009147237284857,17.009147237284857,134.90078628698254
54.22969187675071,120.17506496167054,18.134920936079464,18.134920936079464,132.8039390190068
54.845938375350144,120.94002810503778,17.691409756423543,17.691409756423543,134.72879989896498
55.46218487394958,117.71082041608095,17.06155962178764,17.06155962178764,130.60897925628902
56.07843137254902,118.51714126249435,17.70593778205556,17.70593778205556,130.7839859790266
56.694677871148464,117.8997881949928,16.39966470669072,16.399664706690718,128.89894671069104
57.3109243697479,121.8092121513723,17.134339055630683,17.134339055630686,127.54352093009992
57.92717086834734,118.45572035941687,18.197362871195065,18.197362871195065,130.46366716599712
58.543417366946784,117.12290716676931,17.20444841653178,17.20444841653178,130.83888832770288
59.15966386554622,118.09515809933426,18.235436152235376,18.235436152235376,131.3614646921921
59.77591036414566,117.57456583510913,19.80998602114222,19.80998602114222,134.34521039713513
60.392156862745104,118.93825658772593,18.272787196934043,18.27278719693405,130.50529080324836
61.00840336134454,118.50336622229133,18.547983741054704,18.547983741054704,131.05705850286904
61.62464985994398,117.87482770396639,17.860084834268868,17.860084834268864,132.90883526262462
62.240896358543424,117.72871677445573,17.561343347759685,17.56134334775968,132.6655742181609
62.85714285714286,119.99741801311357,18.41387697678166,18.413876976781662,134.32533404706564
63.4733893557423,119.62679604973776,18.25333211328014,18.25333211328013,132.89058974458973
64.08963585434174,123.04946658628695,17.822673235180464,17.822673235180456,133.4229042516444
64.70588235294117,118.23133157764538,17.604716073833046,17.604716073833046,134.18265025286576
65.32212885154063,119.70543779150482,18.62222114027129,18.62222114027129,135.48223783808191
65.93837535014006,117.64498775163239,16.04523896186716,16.04523896186716,131.791884778073
66.5546218487395,117.05133379107235,17.175929942800988,17.17592994280099,136.0956790796892
67.17086834733894,120.88008910715,17.543794356988712,17.543794356988712,136.07017910925745
67.78711484593838,118.81339735627357,18.899790258276706,18.899790258276706,135.7227370155374
68.40336134453781,119.66986569948706,18.54622684708894,18.546226847088942,135.54773228620806
69.01960784313727,122.45727938572043,16.97722172406926,16.97722172406926,142.10072282235066
69.6358543417367,119.27514083714082,17.163721122969992,17.163721122969992,137.4253573646192
70.25210084033614,120.48486617443706,18.590837204696186,18.590837204696186,138.53261244395716
70.86834733893558,121.30474075006202,19.595846324860624,19.595846324860624,142.88495123689276
71.48459383753502,119.84882590632681,18.69033158760924,18.69033158760924,139.88155021084572
72.10084033613445,120.55134311473178,18.89135083552685,18.891350835526843,143.51413392096418
72.71708683473389,122.01290705573156,17.841912467646306,17.841912467646306,140.94543207967635
73.33333333333334,120.42906770356726,17.15559082181378,17.15559082181378,136.81660257857075
73.94957983193278,117.72505028511503,16.95712272704752,16.957122727047512,138.02082283698203
74.56582633053222,119.1201985974087,17.612529524892498,17.612529524892494,140.42977649458496
75.18207282913166,121.66037624456104,18.414416417697332,18.41441641769732,142.1535542034819
75.7983193277311,125.53387127303859,19.206516393603003,19.206516393603003,139.05306398775232
76.41456582633053,122.49655036447236,19.003156628395644,19.003156628395633,140.18940819653216
77.03081232492998,121.81370791766591,19.323023055324814,19.323023055324814,145.58899543451057
77.64705882352942,122.61266652818136,19.10875336164242,19.10875336164242,144.03690342636025
78.26330532212886,121.85369179518948,19.35570533351961,19.355705333519612,141.6403441254023
78.8795518207283,124.01168509168187,19.56455466831914,19.564554668319136,141.65471932895883
79.49579831932773,122.75273558314014,20.304875830037936,20.304875830037943,143.83447477208935
80.11204481792717,118.96830627740657,18.92547611742364,18.92547611742364,147.1204948480927
80.72829131652661,120.86679213622872,18.336158468555368,18.336158468555364,147.53568705632728
81.34453781512606,122.32469116429239,18.861427711305925,18.861427711305918,143.38870840659413
81.9607843137255,118.91161810926853,18.553189994255092,18.553189994255092,144.45614268245998
82.57703081232494,119.86062361560536,19.600504310109578,19.600504310109578,150.44139316586816
83.19327731092437,122.97737079988535,19.720369221102263,19.720369221102263,152.4687217580469
83.80952380952381,121.70988788167976,20.533637446899398,20.533637446899398,151.36801568364382
84.42577030812325,123.15868386501988,20.148891384365957,20.148891384365953,149.20664854985048
85.0420168067227,122.27853909525876,19.963452321803928,19.963452321803928,150.31776108443722
85.65826330532214,122.22703249029864,18.26440987260527,18.264409872605274,143.66774856517912
86.27450980392157,121.57033525877233,20.117744726574195,20.117744726574195,148.33296649678408
86.89075630252101,120.65471304593939,19.058219684635578,19.058219684635578,149.62607000758553
87.50700280112045,122.83525270489851,19.030257874814627,19.030257874814627,145.77762113464175
88.12324929971989,123.3207270654013,20.002519725933738,20.002519725933745,152.5990048121554
88.73949579831933,125.18721449047825,20.544692282942638,20.544692282942645,152.83232902875363
89.35574229691878,122.7403013878325,19.055083855119687,19.055083855119687,151.2914298434302
89.97198879551821,122.66360545966373,19.124909982700455,19.124909982700455,153.32916859844593
90.58823529411765,122.54871765935393,19.800389626066885,19.800389626066885,158.07928466890513
91.20448179271709,123.62063510276633,19.887092854367843,19.887092854367836,158.40593115491149
91.82072829131653,121.4578850130671,21.24094345322295,21.24094345322295,155.17466882129256
92.43697478991596,123.19418173323307,19.8559150163561,19.8559150163561,155.70855575655847
93.05322128851542,124.70853804716768,18.90453303937222,18.90453303937222,154.05276222877742
93.66946778711485,124.30007622984404,20.238716509434404,20.2387165094344,153.1179722543274
94.28571428571429,125.68206720124047,20.334739952202064,20.334739952202064,156.76608190618566
94.90196078431373,125.80818590152836,19.248988716421326,19.248988716421326,156.25736002748206
95.51820728291317,125.12436638335512,21.062633935399425,21.062633935399425,155.78661228765287
96.1344537815126,126.48183321274715,21.33015054163366,21.330150541633653,155.25153971394394
96.75070028011206,126.947030520885,19.02799761297403,19.02799761297403,156.8437901937272
97.3669467787115,122.90031387820392,19.532986219403856,19.532986219403856,153.3362354241115
97.98319327731093,123.30332179611216,19.16734690716005,19.16734690716005,152.87173715063537
98.59943977591037,121.05638763188941,19.771398380898503,19.771398380898507,151.122638035371
99.2156862745098,125.32202822940486,19.4973675993406,19.497367599340603,155.97035953699603
99.83193277310924,127.26743159323671,20.40745807059967,20.40745807059967,160.69960688022985
100.44817927170868,125.71260923651462,20.07356304445286,20.073563044452868,158.3968627295636
101.06442577030813,122.60930252344363,20.466980373314033,20.466980373314033,159.07517402256116
101.68067226890757,123.62093116866515,18.620717748513915,18.620717748513908,159.3316143397629
102.29691876750701,124.27842359111568,19.505469319795747,19.505469319795754,159.30014400172468
102.91316526610645,124.01890971865848,19.08460737413139,19.08460737413139,159.44058805448515
103.52941176470588,125.52427921058793,21.451458828905228,21.451458828905228,161.1718250790094
104.14565826330532,126.5328652389014,19.035509089747215,19.03550908974722,159.3213482161401
104.76190476190477,123.45407650395241,19.373170845805596,19.373170845805593,159.81117068133216
105.37815126050421,125.97817632343802,18.9389322336086,18.9389322336086,157.53451513094024
105.99439775910365,121.52880231606744,20.307416798659485,20.307416798659496,159.78367830224593
106.61064425770309,122.81687325839451,19.78427216247065,19.78427216247065,160.91416848727957
107.22689075630252,132.43838864446334,25.18255266900614,25.18255266900613,160.29354942850614
107.84313725490196,123.48608420768252,20.66613177415007,20.66613177415007,160.38905250695487
108.45938375350141,123.76935282215248,19.43285101496881,19.43285101496881,161.3300881713787
109.07563025210085,123.96736182501631,19.25649101020544,19.256491010205444,161.25180785935333
109.69187675070029,125.45192358780048,19.040617804363173,19.040617804363173,159.98872155847454
110.30812324929973,122.29684030951397,20.83087355656074,20.83087355656074,159.91318720365652
110.92436974789916,124.73622897940527,18.953458267342047,18.953458267342047,160.04263482719125
111.5406162464986,124.69948343668442,19.984480216889697,19.984480216889697,160.9274349392482
112.15686274509804,126.75063183389365,18.458915729085064,18.458915729085064,164.12880406832238
112.77310924369749,122.40316865031434,19.144385080610522,19.144385080610522,160.12557956399027
113.38935574229693,121.84877852235718,19.86078409948221,19.860784099482206,161.54170333841418
114.00560224089637,123.31703858058839,19.26357034578745,19.26357034578745,160.0225722471375
114.6218487394958,123.81468239848712,20.340585478308515,20.340585478308515,161.3850139397143
115.23809523809524,125.1899603534291,19.82246395901605,19.82246395901605,162.79632627819953
115.85434173669468,120.49904179287884,20.192078403737582,20.192078403737582,162.27541465700654
116.47058823529413,124.49987705228305,19.320350117257547,19.320350117257547,167.20987082224636
117.08683473389357,125.41116258299954,19.72656891502658,19.72656891502658,165.02236108847572
117.703081232493,130.32314461499945,18.083825006611,18.083825006611,167.72065860571905
118.31932773109244,127.86385455366879,19.787264275382444,19.787264275382444,168.2497574744361
118.93557422969188,122.7348138038394,19.90725771165127,19.90725771165127,166.8070777818236
119.55182072829132,124.40945687344502,21.802098222449096,21.802098222449096,168.38730571354108
120.16806722689076,124.40120814446647,20.222884285645478,20.222884285645478,168.52358584089205
120.78431372549021,125.71528218207398,20.131186299670915,20.131186299670915,166.36036175055176
121.40056022408965,129.06426820857675,19.495643918024793,19.49564391802479,167.82247979485763
122.01680672268908,127.23648952248831,20.266598358222176,20.266598358222176,167.9175109468449
122.63305322128852,123.7656941618103,19.065536348969427,19.065536348969424,169.86893998560532
123.24929971988796,124.83428714519516,20.629896769274282,20.629896769274282,170.82163040471573
123.8655462184874,123.37151575559554,21.425037208752276,21.42503720875227,168.31878217779828
124.48179271708685,119.73598185191783,20.488686707785,20.488686707784996,168.45511227845088
125.09803921568628,121.28436804464839,20.39605661099599,20.396056610995995,171.835318882991
125.71428571428572,123.42755429681924,20.123583330811023,20.123583330811023,172.10332826005097
126.33053221288516,124.80506400640584,21.163653829796385,21.163653829796388,168.96202761353658
126.9467787114846,121.89153675258403,21.011413761486747,21.011413761486747,169.37835443736282
127.56302521008404,122.47648037971268,19.927999086992102,19.92799908699211,168.88181347365867
128.17927170868347,123.58044398422854,21.30769231316533,21.30769231316533,171.92911213963953
128.79551820728292,122.33267461012133,22.82937566931813,22.82937566931812,169.48815265102982
129.41176470588235,122.74724824921906,21.299438736259283,21.299438736259283,171.22960922006936
130.0280112044818,123.56731586258573,21.178160142421582,21.178160142421582,171.77501801905677
130.64425770308125,123.44625818802278,21.2316764296704,21.2316764296704,172.47719977003206
131.26050420168067,127.46385623949331,22.125584151678638,22.125584151678634,171.86460877898446
131.87675070028013,123.34838084549618,18.421046770604992,18.421046770604985,175.1285427684936
132.49299719887955,130.81344080616404,19.12248611621475,19.12248611621475,173.9020764527328
133.109243697479,123.6834752546045,22.216098570513758,22.216098570513758,172.28795302943738
133.72549019607843,127.5460846924571,20.08070812171765,20.08070812171764,178.9206428802691
134.34173669467788,130.07363275996724,20.313450846758062,20.313450846758062,177.13307725119157
134.95798319327733,130.38663535583686,18.632238652758947,18.632238652758947,180.65676939020258
135.57422969187675,128.78473332952956,19.590021847893784,19.590021847893787,176.5879528913689
136.1904761904762,130.4878534893856,20.38105011827045,20.38105011827045,177.43423782330032
136.80672268907563,130.81072499037947,19.806326721896564,19.806326721896564,179.82779487548652
137.42296918767508,133.29217473512495,20.838072148224526,20.838072148224526,180.93960691397697
138.03921568627453,135.74744670928817,17.872619312625357,17.872619312625353,181.5571734298994
138.65546218487395,130.0400503330874,21.060570828789196,21.0605708287892,179.40278348533786
139.2717086834734,129.27100916516025,19.812724579330204,19.812724579330204,180.97110548854607
139.88795518207283,130.06499532538402,20.107785857840298,20.1077858578403,181.29198280967952
140.50420168067228,134.92050051178435,18.90012491460383,18.900124914603822,183.22907321490854
141.1204481792717,133.73605005106904,19.39664016716212,19.39664016716212,178.92704873907118
141.73669467787116,130.36338981762367,20.223038852598386,20.223038852598386,183.61124647325389
142.3529411764706,134.17887232360644,18.713075961562712,18.713075961562712,182.02201280086427
142.96918767507003,133.03956175787002,18.022147024715768,18.022147024715764,183.11035000918284
143.58543417366948,132.467685619946,19.54828034882113,19.548280348821137,183.2956929370942
144.2016806722689,132.01973186250967,17.175188718855672,17.175188718855672,188.02485306806267
144.81792717086836,135.78436419332536,18.893568129982228,18.893568129982228,180.59312042266143
145.43417366946778,132.09653120010933,18.099820985071215,18.099820985071215,186.90250012883246
146.05042016806723,132.39907455870562,18.665747161655045,18.66574716165505,186.42912784639515
146.66666666666669,135.36990359129157,18.98069643334695,18.98069643334695,184.9991800154179
147.2829131652661,140.97626393038544,17.626266879266478,17.62626687926648,188.33176080659527
147.89915966386556,135.6588290514811,18.81787506790553,18.81787506790553,182.89516277947007
148.51540616246498,127.60852096898932,19.405938435243485,19.405938435243478,185.48605000897598
149.13165266106444,133.09160150628685,17.79774270368175,17.79774270368175,185.63660841965628
149.74789915966386,130.88638873554848,20.075415527975313,20.075415527975313,185.2350917770443
150.3641456582633,134.18389779061397,20.77641581163436,20.77641581163436,182.02770739857556
150.98039215686276,132.48346194712397,18.955293713464332,18.955293713464332,190.00654329311564
151.5966386554622,134.3788617026047,18.2325077959372,18.232507795937195,187.83208835627997
152.21288515406164,132.43868705197792,19.116076674238254,19.11607667423826,187.387306501544
152.82913165266106,129.85540711751622,20.915023077026145,20.915023077026152,182.63265893763045
153.4453781512605,134.61537287967627,18.912015015023545,18.912015015023545,185.28082228795947
154.06162464985997,133.99967639044783,18.215031199719487,18.215031199719487,189.08015908077581
154.6778711484594,136.03922821239757,20.050410731720255,20.05041073172026,186.68730782259192
155.29411764705884,135.15246856730548,19.065425870224363,19.065425870224367,186.9707916124481
155.91036414565826,133.5310053800624,18.022423171308446,18.022423171308446,189.09062009914072
156.52661064425772,133.8397367412733,17.11408509427088,17.11408509427088,192.5139436972767
157.14285714285714,131.9988701508685,19.249607970329198,19.24960797032919,190.9691804815519
157.7591036414566,131.01790148927165,19.9300574645356,19.9300574645356,188.47178667670468
158.37535014005604,132.67197404399693,19.88844772946093,19.88844772946093,189.59198788842065
158.99159663865547,136.35812203759417,18.760274278876977,18.760274278876977,190.57522970726254
159.60784313725492,135.37916578889414,18.03667187720118,18.03667187720118,191.39362318014938
160.22408963585434,141.270951175206,17.1581679778135,17.1581679778135,193.2169123758454
160.8403361344538,133.58017404011562,17.600942873029116,17.600942873029116,192.21325847648325
161.45658263305322,133.24595302625278,19.033905216595244,19.03390521659524,192.04558956781818
162.07282913165267,135.05432128114953,17.06895352333708,17.06895352333708,194.82905707909018
162.68907563025212,209.90384365477428,25.357136160788535,25.35713616078854,184.56734576699088
163.30532212885154,135.78518867121875,19.413004019574633,19.413004019574633,196.2141269734655
163.921568627451,131.06832504971587,21.28102526777795,21.28102526777795,194.7914639670985
164.53781512605042,131.8988490132341,19.99916759684121,19.999167596841215,194.22396300287704
165.15406162464987,135.01660396902938,20.785559564180716,20.785559564180716,193.50335924321644
165.77030812324932,136.06029773836053,20.831154670888314,20.831154670888314,195.54389747389763
166.38655462184875,139.32973263515237,20.29807937211765,20.29807937211764,196.0065098065195
167.0028011204482,134.97713364924599,19.368995591123557,19.36899559112355,193.94909168729941
167.61904761904762,137.21469194976666,17.46655422317933,17.466554223179322,194.5862232768378
168.23529411764707,134.25787903125257,18.312046448953023,18.31204644895303,194.89151195778365
168.8515406162465,136.18684851258632,17.147914175980628,17.14791417598062,194.1121728222678
169.46778711484595,135.61370038394193,16.50594995699054,16.50594995699054,196.50507358644933
170.0840336134454,132.46642735762225,19.5921520046594,19.5921520046594,193.91979597699077
170.70028011204482,133.82670751055983,17.744154629462873,17.744154629462873,195.73998541999794
171.31652661064427,135.584392993221,19.15386968197491,19.15386968197491,192.1192073300155
171.9327731092437,135.37640912198302,19.336036982355125,19.336036982355125,194.91465427861598
172.54901960784315,133.18250729128727,16.59916346274035,16.599163462740357,193.53256043300632
173.16526610644257,132.12789447305312,18.457395909280375,18.457395909280383,197.03757709827605
173.78151260504202,134.7447696404123,19.613618779507508,19.613618779507508,195.37177776593504
174.39775910364148,136.5171686434124,19.17789376025495,19.17789376025495,194.1920852343185
175.0140056022409,139.01503331872624,17.262012075849725,17.262012075849725,197.98499152782446
175.63025210084035,138.7378098607766,18.436928208942653,18.43692820894266,198.40559255165184
176.24649859943978,140.59832513826495,18.652401230946126,18.652401230946126,196.18351490387445
176.86274509803923,139.25614113975658,16.747920769766296,16.747920769766296,196.52465624054966
177.47899159663865,139.04500166342697,16.858769201956303,16.858769201956303,197.76606265941783
178.0952380952381,128.2360495434002,20.212746150874086,20.212746150874086,198.87743482931086
178.71148459383755,130.12241358692813,18.343399483723452,18.343399483723452,195.06082927275716
179.32773109243698,134.87574216295664,16.494539810160564,16.494539810160568,197.13173601481733
179.94397759103643,136.20896315855632,17.463642877291296,17.463642877291296,197.20160810124383
180.56022408963585,135.40525364236387,17.157784964746035,17.157784964746035,198.0909824833199
181.1764705882353,133.879620818176,17.457077791084053,17.457077791084057,200.7837839917716
181.79271708683476,134.22115703912934,18.016881312837974,18.016881312837974,200.66813292079078
182.40896358543418,135.14887676831032,16.92533751654974,16.92533751654974,201.1254355736159
183.02521008403363,133.71882200689586,20.046084869853164,20.046084869853157,197.44774295194964
183.64145658263305,137.91787104349854,17.195799996407487,17.195799996407498,201.49113129145096
184.2577030812325,136.72179350766524,18.042916195045702,18.042916195045706,196.1023945055663
184.87394957983193,134.97890182885243,18.89210083438937,18.89210083438937,197.26816276896676
185.49019607843138,136.86851099595552,17.79703930560837,17.79703930560837,200.12883974247677
186.10644257703083,137.6737097627236,18.888703115879323,18.888703115879323,200.69094939493192
186.72268907563026,137.58068345201877,18.73161288351803,18.73161288351803,199.73829460992746
187.3389355742297,136.17267577109234,18.425325050790345,18.42532505079035,198.7358345589272
187.95518207282913,136.12148963526016,16.841593256633537,16.84159325663353,203.2286273058773
188.57142857142858,135.99862505730422,18.265661483816864,18.265661483816878,199.16197336882283
189.187675070028,133.09939922329633,17.899368314469083,17.899368314469076,200.49470907458084
189.80392156862746,133.93792682878987,17.15876397641375,17.15876397641374,202.35007845281726
190.4201680672269,132.40684834886784,19.583310178396648,19.583310178396648,199.46060194398515
191.03641456582633,135.79614956065782,17.485795565162718,17.485795565162714,203.29676653573233
191.65266106442579,131.8345714863536,18.706282783850295,18.706282783850302,203.1818539185957
192.2689075630252,134.5551404370528,17.224667013955308,17.22466701395531,202.68954204519872
192.88515406162466,135.11569175857488,17.845634445721835,17.84563444572184,201.73965148354725
193.5014005602241,131.95395634860373,18.7677290570587,18.7677290570587,201.89545205505493
194.11764705882354,136.99523834881782,18.30767834138782,18.30767834138782,201.39127562477373
194.733893557423,137.84195111112936,17.151265098611624,17.151265098611628,203.8276233851439
195.3501400560224,139.56984620044378,18.437349407919065,18.437349407919065,206.74127866310863
195.96638655462186,137.96238857623104,16.89222093995738,16.89222093995738,206.12829628213677
196.5826330532213,135.67504181073338,16.349882255240264,16.349882255240264,205.8705251963074
197.19887955182074,140.85104254211524,16.07414825377957,16.07414825377957,206.58013517919278
197.8151260504202,139.07310558972907,17.202965230792856,17.202965230792856,205.89062595657242
198.4313725490196,137.70273503812822,16.98045191785879,16.98045191785879,205.64090473416303
199.04761904761907,135.13913449404157,17.83924355602612,17.83924355602612,207.37710325053988
199.6638655462185,136.20264908921163,17.393909373787068,17.39390937378706,206.66093836462633
200.28011204481794,139.598540984923,15.797920970072116,15.797920970072116,203.31744250829405
200.89635854341736,135.45444894550235,17.68666373147064,17.68666373147064,205.43478592908068
201.51260504201682,136.14165986099033,15.852271227026838,15.852271227026835,207.24393581648013
202.12885154061627,137.30039822957716,18.365104780446153,18.365104780446153,203.97465769973974
202.7450980392157,134.69825086701138,17.617381116004474,17.617381116004474,206.29097610639764
203.36134453781514,136.78760676466658,18.493370656729084,18.49337065672909,208.11782315296745
203.97759103641457,138.00477096888744,16.907453368168817,16.90745336816882,209.43581217056166
204.59383753501402,137.39701130277206,18.05296208648089,18.05296208648089,205.5023199898447
205.21008403361347,138.15585839189853,18.439868168028937,18.439868168028937,207.124796758442
205.8263305322129,141.6156388623823,16.748550147343806,16.748550147343806,208.7437699055627
206.44257703081234,141.99060081477782,17.287573019512024,17.287573019512024,205.1687151740203
207.05882352941177,139.36405209938002,18.14337345180768,18.14337345180768,208.10403555144453
207.67507002801122,138.5713939814279,17.504128827258214,17.504128827258214,208.5828734802426
208.29131652661064,139.5864136837045,18.326292249715124,18.326292249715124,208.79885131518876
208.9075630252101,138.8214063201858,16.84289536623406,16.84289536623406,210.1110489069965
209.52380952380955,136.7077604218325,16.685993010287184,16.685993010287184,211.36791768869384
210.14005602240897,135.60573577186165,17.255283440026453,17.255283440026446,209.92477203664413
210.75630252100842,141.83676742509087,16.402073936904273,16.402073936904273,208.13178831055927
211.37254901960785,140.09894963593945,17.33862364557915,17.33862364557916,212.0243689352674
211.9887955182073,139.69183445163006,15.499630224277354,15.499630224277347,208.5649859594593
212.60504201680672,142.08687325459746,17.791069911515883,17.791069911515883,210.20300637227155
213.22128851540617,138.82033476079187,17.090199355714674,17.090199355714677,210.22250667141884
213.83753501400562,139.22114932206503,17.374000787013287,17.37400078701328,207.38696174814623
214.45378151260505,139.46969401381438,18.36488753392187,18.36488753392187,211.60078887237586
215.0700280112045,141.17406259218558,18.21242770744557,18.212427707445574,211.4497832704087
215.68627450980392,141.74058796657863,16.55606441326496,16.556064413264952,209.33257032175865
216.30252100840337,140.4294974384101,16.401473820226407,16.401473820226407,212.81777615192905
216.91876750700283,140.76984404790653,18.535672550036907,18.535672550036907,209.02896175394702
217.53501400560225,141.57031085549932,17.393169394418603,17.393169394418607,208.38202551074443
218.1512605042017,139.6780283115595,17.119957924579207,17.119957924579204,210.49247427189354
218.76750700280112,139.78419746680305,17.685529701388578,17.685529701388578,212.00389739157936
219.38375350140058,142.08730855129872,16.07094278296812,16.07094278296812,213.3232520259012
220.0,139.38301212670845,17.633873303556033,17.633873303556033,213.05019912221894
220.61624649859945,139.83634531016742,17.513214388716136,17.51321438871613,212.86110487562675
221.2324929971989,139.23297788574686,17.248171499948988,17.24817149994898,213.57380173110346
221.84873949579833,140.89966150853044,17.919628309869395,17.919628309869395,212.48872958910323
222.46498599439778,139.94066128454378,18.4603249792129,18.4603249792129,211.5261970480619
223.0812324929972,139.0730890666398,16.1794381580833,16.1794381580833,213.79980897437002
223.69747899159665,141.77299357397374,15.488310533048743,15.488310533048743,212.82701274635775
224.31372549019608,136.07477849504417,17.889417264589188,17.889417264589188,214.29376555367995
224.92997198879553,139.22059929807867,15.324373232888032,15.324373232888039,215.6656896751677
225.54621848739498,137.4476465051265,17.66237529653884,17.662375296538833,212.61059068165935
226.1624649859944,138.6629988094069,16.791109630215495,16.79110963021549,211.61645316304276
226.77871148459386,140.4726786414016,17.83005776047418,17.83005776047418,213.1945802793784
227.39495798319328,140.18492644149669,17.38188720078583,17.381887200785826,212.88405131177942
228.01120448179273,139.68407455012309,18.38537884841716,18.38537884841716,211.79464663310068
228.62745098039215,139.23344911193553,17.658600276923817,17.65860027692382,213.28909362858252
229.2436974789916,141.9744900168053,17.22271683447549,17.222716834475477,213.4621343998176
229.85994397759106,143.8411842962418,17.085759945335763,17.085759945335763,211.86316082105085
230.47619047619048,142.2648699153487,16.842550965031396,16.842550965031393,213.69768951692384
231.09243697478993,139.50477464346625,17.707312366147324,17.707312366147324,210.75899850035776
231.70868347338936,142.83952875211972,17.228071597083904,17.2280715970839,213.37217305829964
232.3249299719888,139.61968751168536,18.557845853302517,18.557845853302517,214.0618291215426
232.94117647058826,140.16387844232642,17.420232450393712,17.420232450393712,215.85198277459207
233.55742296918768,142.27424039755593,16.900147991567234,16.90014799156724,217.45681431984633
234.17366946778714,143.33992387503355,17.575989216897987,17.57598921689799,217.76503188794211
234.78991596638656,142.1103553660798,17.882294109903754,17.882294109903743,218.57954549484236
235.406162464986,147.2206228361081,15.68984086345368,15.689840863453691,214.85150334204147
236.02240896358543,145.34208305272412,17.228499424733467,17.22849942473347,216.17562571875195
236.6386554621849,141.04714038421915,14.873551792512941,14.873551792512945,229.78989292345244
237.25490196078434,141.62907232628743,18.649862888695996,18.64986288869599,219.63027217716763
237.87114845938376,146.04554649147826,18.65698401825232,18.656984018252317,217.3450324301317
238.4873949579832,144.42156059721376,18.055957277156626,18.05595727715662,212.68709761963942
239.10364145658264,143.68730889054635,17.20413622168445,17.204136221684447,212.46977753599057
239.7198879551821,144.50745311124388,16.54514437713509,16.5451443771351,216.0180174101465
240.3361344537815,145.0707085725253,16.990422754153187,16.990422754153187,216.12750390570224
240.95238095238096,143.34580750612264,17.522830866030116,17.522830866030123,216.9126627319448
241.56862745098042,144.70547782107252,18.06207638972258,18.062076389722577,216.5219274280032
242.18487394957984,146.38543424990903,19.611174621786784,19.611174621786784,215.12559821281445
242.8011204481793,146.7755084663556,19.05693388571404,19.05693388571404,217.35828927250026
243.4173669467787,145.82501099958947,18.39449974157952,18.39449974157952,214.6491274793726
244.03361344537817,145.0992721385365,19.861076860450957,19.861076860450957,219.52318571322903
244.64985994397762,143.20095665606306,17.794825104035013,17.794825104035006,219.17792549453122
245.26610644257704,144.60277892689507,18.194343171768647,18.194343171768644,216.57469830816464
245.8823529411765,145.3742609732994,19.108665244077077,19.108665244077077,217.02788212448465
246.49859943977592,145.815568105107,17.609081655682203,17.60908165568221,214.33004321873415
247.11484593837537,144.38831352396292,18.185961297793895,18.185961297793895,217.7792578053047
247.7310924369748,144.58807270852645,18.252976869013644,18.252976869013647,216.50389158675642
248.34733893557424,142.8628390827844,18.927250927208764,18.927250927208767,216.62180823066905
248.9635854341737,145.75704915178662,18.878924975302656,18.878924975302656,217.1676600174145
249.57983193277312,145.3536883737403,18.787247493633657,18.78724749363365,220.05984521235385
250.19607843137257,146.49175632759915,18.74309204579676,18.74309204579676,217.44793582267258
250.812324929972,146.4647393069635,20.22413488373791,20.224134883737904,216.1716787081645
251.42857142857144,142.89773464443397,19.171717321715555,19.171717321715562,218.07433109550044
252.04481792717087,142.67854352440438,17.949410096680527,17.949410096680523,216.8419742628233
252.66106442577032,146.2774347054363,19.867704032563726,19.86770403256372,214.41055717593503
253.27731092436977,145.7877384403885,17.813852521129366,17.813852521129366,214.06184502318692
253.8935574229692,143.99938176858774,19.37926498616667,19.37926498616667,216.83325865730527
254.50980392156865,143.75063506191495,19.85809907037367,19.858099070373672,214.94212520252688
255.12605042016807,147.33588318142233,21.14748106680459,21.14748106680459,217.06250230539496
255.74229691876752,144.42682479594455,19.458678190608396,19.458678190608396,217.29173257505443
256.35854341736695,147.57718017541774,20.801299085295778,20.80129908529577,224.16423413073926
256.9747899159664,146.3130871207968,17.754421880616203,17.754421880616203,216.1140827395432
257.59103641456585,145.7794907607801,17.278084262712298,17.278084262712294,217.62222457184643
258.2072829131653,145.7706574625104,18.997349433029495,18.997349433029495,218.02589212808925
258.8235294117647,146.71000851160247,19.97330904256734,19.973309042567337,220.61908091153813
259.4397759103642,144.51796793573365,18.880188050366705,18.880188050366694,218.52242144022838
260.0560224089636,146.62012863884252,19.646421834305098,19.646421834305105,220.34242005680346
260.672268907563,143.22997424870186,18.546431812460686,18.546431812460686,217.6935093261391
261.2885154061625,146.10182217322367,19.23735018443918,19.23735018443918,216.7575015567182
261.9047619047619,145.10107810600792,18.396437354647073,18.39643735464707,218.33543370522534
262.52100840336135,145.36844879886954,18.865120409854544,18.865120409854544,216.10767494008257
263.1372549019608,146.98104323762092,17.91494332107497,17.91494332107497,214.71650504525485
263.75350140056025,146.98120904077265,18.069897248916455,18.069897248916455,219.14360903318112
264.3697478991597,148.50729907155988,17.973427762464322,17.973427762464322,218.26201901725108
264.9859943977591,146.3945363294634,18.40413763685326,18.404137636853253,219.24221579921686
265.6022408963586,146.19327278214544,17.559727397145085,17.559727397145085,220.62555017752666
266.218487394958,144.99553907035462,17.957563065075483,17.957563065075483,220.3869351742383
266.8347338935574,148.89675996480855,19.79413892751168,19.79413892751168,219.14985278574892
267.45098039215685,147.9331785465064,19.342415388825874,19.34241538882588,220.0162260152098
268.06722689075633,148.00007118402402,18.98202446736304,18.98202446736304,218.90020362436363
268.68347338935575,146.82319049231995,19.97489349109596,19.97489349109596,217.14838460846116
269.2997198879552,147.5886846330263,19.218991980957917,19.218991980957917,215.83236406444382
269.91596638655466,146.57763904987925,20.05356798898978,20.05356798898978,221.53894505605393
270.5322128851541,148.16403647958614,19.33829373010118,19.33829373010118,220.17965994527432
271.1484593837535,148.09734622582022,18.574161464897863,18.57416146489787,222.9414475405202
271.7647058823529,148.1732699117879,19.466802415955865,19.466802415955872,216.32756263654764
272.3809523809524,153.10484914758086,20.18878612170466,20.18878612170466,216.6811574292583
272.99719887955183,153.21924575488575,19.53238383233213,19.532383832332133,220.30181062537625
273.61344537815125,155.03895112695017,21.50045726945306,21.500457269453058,219.44931988376655
274.22969187675073,152.6521723517581,19.964205114005342,19.964205114005342,219.5884863189123
274.84593837535016,153.7665854959926,18.652023705588693,18.65202370558869,219.51839553370564
275.4621848739496,150.0370818410225,18.615870104518496,18.615870104518496,220.05034796652998
276.07843137254906,149.5103129201515,20.416344964813185,20.416344964813185,218.96748250907123
276.6946778711485,147.33677700513593,20.124332052433584,20.12433205243359,219.6631043104408
277.3109243697479,152.52209636296266,20.86065745825435,20.86065745825435,222.01127565044422
277.92717086834733,149.1132638741755,20.606773390163003,20.60677339016299,218.23618602609633
278.5434173669468,147.81614529761111,19.70885093475044,19.70885093475044,217.13726646938835
279.15966386554624,149.6488427359797,18.758016662411766,18.75801666241176,218.94835227352002
279.77591036414566,150.9035680877535,21.04311693540026,21.043116935400256,221.89466785897727
280.39215686274514,152.5525017933483,19.717637402103012,19.717637402103012,219.5494941229829
281.00840336134456,152.63568496104782,19.354131444862457,19.354131444862457,219.62947892171928
281.624649859944,152.2967957370167,19.523318332807122,19.523318332807122,221.33585265061578
282.2408963585434,150.3235461930769,20.329943008751133,20.32994300875113,220.69621145655498
282.8571428571429,151.8814748380396,19.19426243702891,19.19426243702891,221.7098470106503
283.4733893557423,151.27635030292595,19.840132377881233,19.840132377881233,219.4555451819442
284.08963585434174,153.57008195795274,19.334622307477762,19.334622307477762,222.78902907417603
284.7058823529412,152.7832362593302,19.109235174653044,19.109235174653044,221.83609159886163
285.32212885154064,152.75286832191256,19.523038673801686,19.523038673801686,222.3372398537142
285.93837535014006,155.66974748957992,18.92369029869657,18.92369029869657,220.5234426266194
286.5546218487395,151.55878215274618,19.97769665351308,19.977696653513078,224.85657030819127
287.17086834733897,151.6406383306117,20.686203830293426,20.68620383029343,223.50887304733916
287.7871148459384,152.55342316362982,19.307603942440764,19.307603942440764,223.3303698965614
288.4033613445378,155.51512854043978,20.241708503388118,20.241708503388114,221.58317927998684
289.0196078431373,157.87389733847925,20.628347570715,20.628347570715004,222.29018932762136
289.6358543417367,158.14448731201597,19.115814382048928,19.11581438204892,219.97757270228556
290.25210084033614,160.40549627984902,20.520819248815663,20.520819248815663,221.6564340667788
290.86834733893556,154.84944727641775,20.152470840882987,20.152470840882987,221.48796046659254
291.48459383753504,154.51043580302456,18.92606708980492,18.92606708980492,224.4785099282214
292.10084033613447,152.4085881740692,19.081156092486832,19.081156092486825,219.3375945767995
292.7170868347339,150.89105587533263,19.475085418836667,19.475085418836674,221.58899511236598
293.33333333333337,152.71137697908765,19.343037526815298,19.343037526815298,224.75296190040572
293.9495798319328,152.85676249380555,20.576791667635156,20.576791667635156,221.60010775529062
294.5658263305322,154.61963880733887,18.640167256364975,18.64016725636498,221.0752449203796
295.18207282913164,156.33484674918583,20.390560018899613,20.390560018899613,222.71371896780695
295.7983193277311,158.8889752063744,19.333169528868535,19.333169528868535,219.69672012954126
296.41456582633054,159.54207610364728,19.69362454747512,19.693624547475125,222.55703863050758
297.03081232492997,156.70045744143684,19.501513000373414,19.501513000373407,222.8762349796926
297.64705882352945,160.29105098163504,20.11349723876979,20.11349723876979,222.16280041243607
298.2633053221289,161.77457708414227,20.212983147610316,20.212983147610316,222.06562607492845
298.8795518207283,164.42583849516896,19.166196214915033,19.166196214915033,219.20493182951725
299.4957983193277,161.17788484255527,19.011086060439965,19.011086060439965,222.53948723006292
300.1120448179272,157.92983163907493,20.037529604604632,20.037529604604632,220.3104458353615
300.7282913165266,159.88570815988365,20.17455812206345,20.17455812206344,222.48704291516958
301.34453781512605,159.6039998140496,19.393937651159664,19.393937651159657,221.1553584463758
301.9607843137255,160.12549664447545,19.406430976610054,19.406430976610054,216.12410650521895
302.57703081232495,162.81362082426645,18.473756615203197,18.47375661520319,221.65503402514727
303.1932773109244,162.80367517417832,18.79001224080057,18.790012240800568,219.60052940278652
303.80952380952385,164.0316943944232,19.080120017069813,19.080120017069824,220.29551499644452
304.4257703081233,164.07484214123545,19.0820630478643,19.082063047864295,219.80325319449415
305.0420168067227,159.82282778220394,19.524117617435948,19.524117617435948,221.61564866719198
305.6582633053221,161.8356974193456,18.93236695413028,18.932366954130277,222.09784557290536
306.2745098039216,162.1667989983191,18.169605426447333,18.169605426447337,220.31057209832514
306.890756302521,162.9187545975777,19.284847369504643,19.284847369504643,220.54080021329528
307.50700280112045,163.2434515889386,18.74645184503916,18.746451845039157,221.61915845341065
308.12324929971993,168.0010805854754,18.926736736099656,18.926736736099656,218.95185185120783
308.73949579831935,167.48000472862032,19.119922318218286,19.119922318218286,222.23513728257444
309.3557422969188,161.43520339068908,18.568013016239654,18.568013016239657,227.4539136627872
309.9719887955182,164.16063217575618,18.48989086762324,18.48989086762324,222.7173343454959
310.5882352941177,162.95729432226986,18.467158078364392,18.467158078364392,218.63378317512638
311.2044817927171,161.38692269012412,20.14710805348692,20.147108053486924,218.97043531062812
311.8207282913165,163.27558143937924,18.590422280129353,18.590422280129346,217.18150245151722
312.436974789916,162.47313004979063,18.654175592626487,18.654175592626487,221.17325998202088
313.05322128851543,167.17083547170657,19.3052257710306,19.3052257710306,219.54617522775925
313.66946778711485,163.00694817118037,18.27866860062484,18.278668600624847,220.68086993744257
314.2857142857143,167.24244482381613,18.87939913649178,18.87939913649178,219.9127486024479
314.90196078431376,163.98857629445112,18.73956186060935,18.73956186060935,220.22082397762512
315.5182072829132,163.351685071319,19.75112838449595,19.751128384495946,221.2097061923614
316.1344537815126,161.07304652171217,20.254789501122055,20.254789501122048,223.44600484224986
316.7507002801121,162.63845328651806,18.611604860938723,18.611604860938723,224.10786800552714
317.3669467787115,162.5610385043621,18.863939347097872,18.863939347097872,226.19902124399903
317.98319327731093,167.47060943961532,17.286064464910154,17.28606446491015,220.4558568711078
318.59943977591035,165.15726422552626,18.333843088255257,18.33384308825526,221.1532707925421
319.21568627450984,164.73126381333432,18.039804566967113,18.039804566967117,219.03359978404438
319.83193277310926,165.53601666964911,18.490240192579794,18.490240192579797,220.78770739226684
320.4481792717087,165.2605616359361,18.478389101785588,18.478389101785588,219.26112422470345
321.06442577030816,166.75006609190365,19.446439191092445,19.446439191092452,216.36065464598562
321.6806722689076,167.8262925625913,19.257684562996864,19.25768456299687,221.96528857421893
322.296918767507,166.49903165801632,17.74888660842198,17.74888660842198,218.8104567772099
322.91316526610643,167.056836941844,17.868829843149832,17.868829843149843,221.2702181404576
323.5294117647059,167.82584026268003,19.482180537107595,19.48218053710759,220.64611979544478
324.14565826330534,166.28495171209235,17.212102262135208,17.212102262135208,221.68472090960947
324.76190476190476,164.7633740228152,18.681977072626715,18.68197707262671,219.65462068500085
325.37815126050424,166.57336345606393,18.932697871630833,18.932697871630836,219.6845358793371
325.99439775910366,166.1755956067464,18.33618933198498,18.33618933198498,224.33165654824646
326.6106442577031,166.02106116073782,19.43568467890983,19.43568467890983,220.61885039968564
327.2268907563025,171.4196135503318,18.814368580847848,18.814368580847848,217.89032534267662
327.843137254902,170.22480368050748,19.723013509584696,19.723013509584696,217.8546917290719
328.4593837535014,170.93830683965194,18.195067875476813,18.195067875476816,221.09836839739606
329.07563025210084,172.53461877301655,18.350780963559334,18.350780963559338,221.49224584493237
329.6918767507003,172.9510005878675,18.43650218254031,18.43650218254031,224.89438003884737
330.30812324929974,172.2700567502711,18.780693445363237,18.780693445363234,221.2181201564781
330.92436974789916,171.8729291551252,18.221854063351874,18.22185406335187,221.42660159243192
331.54061624649864,168.28925383253954,18.169951144169982,18.16995114416998,221.16908102569772
332.15686274509807,168.73386569536214,18.439129175157106,18.439129175157113,221.64954918266977
332.7731092436975,173.0785304784068,16.779565549326083,16.77956554932608,221.72051691178362
333.3893557422969,174.21684947131942,16.76767967202024,16.76767967202024,221.33975843445143
334.0056022408964,172.3904937702482,18.346374800189498,18.346374800189505,221.15595923316837
334.6218487394958,169.94397513714642,18.312482656368886,18.312482656368882,222.065633278715
335.23809523809524,170.15736970385746,17.518370305134656,17.518370305134656,221.88601380384347
335.8543417366947,167.30290529027124,19.018791593708347,19.018791593708347,221.44714440667525
336.47058823529414,171.5147623973509,18.813874794132573,18.813874794132573,223.83621368200437
337.08683473389357,169.34320482836492,19.23450850996817,19.234508509968173,222.28256127470578
337.703081232493,168.5007093810197,19.937896352940257,19.937896352940257,219.5032157549036
338.31932773109247,171.18100578534614,18.310181840862274,18.310181840862274,221.46171751559297
338.9355742296919,171.2487940125677,18.634393525582595,18.634393525582595,224.03953579646634
339.5518207282913,171.20110276909776,18.494162070431408,18.494162070431415,223.42201869737156
340.1680672268908,171.13167106871458,18.95479737556561,18.95479737556561,221.39597016532707
340.7843137254902,173.41567349478308,18.721315270612028,18.721315270612024,219.93799869029925
341.40056022408965,172.3403265533446,17.58450007483198,17.584500074831983,221.74400176899877
342.01680672268907,172.70012471263604,18.915940877579878,18.91594087757988,217.03759671176925
342.63305322128855,173.61167782613154,17.925007315737396,17.925007315737396,223.0685365784885
343.249299719888,173.7571383618927,17.21871489629717,17.21871489629717,218.99230327370103
343.8655462184874,173.22052021235496,17.039506048741103,17.0395060487411,220.6623643836304
344.4817927170869,171.78315066781053,19.525181869443315,19.525181869443312,215.6949493824329
345.0980392156863,173.97828653265816,17.799938494179127,17.799938494179123,224.53418280319303
345.7142857142857,173.75381964415595,18.33869408554883,18.338694085548838,221.17041481180777
346.33053221288515,172.8222480384479,17.864698897692524,17.864698897692534,220.58560323509948
346.9467787114846,172.34429445638057,17.800311334291845,17.80031133429185,220.76648068942484
347.56302521008405,172.88448401265026,18.259220230839976,18.259220230839976,225.63073961931912
348.1792717086835,170.43013996307405,19.242615897757776,19.242615897757776,222.480105079465
348.79551820728295,175.1821550359552,18.485668372809183,18.485668372809183,221.1580253649252
349.4117647058824,175.48799792386018,18.20000661383452,18.20000661383452,217.26578273419997
350.0280112044818,175.34284023832387,17.405915738789645,17.40591573878965,219.58962268585572
350.6442577030812,175.32425919501583,17.742085288327875,17.742085288327875,220.9026532042468
351.2605042016807,178.3143518039558,17.275342779539564,17.275342779539557,218.97592162524091
351.8767507002801,176.01673528979,17.066229001934552,17.066229001934552,224.43249093490257
352.49299719887955,176.97000857604937,17.75189341100304,17.75189341100304,217.95014756833552
353.10924369747903,176.06689260562857,18.376959063214937,18.37695906321494,217.31653285860133
353.72549019607845,176.27829647642278,18.333026221378738,18.333026221378738,219.51923049956534
354.3417366946779,173.601483313414,18.182100717012727,18.18210071701272,219.22747743849746
354.9579831932773,175.4135903008173,18.065622263185933,18.065622263185936,226.14509770787427
355.5742296918768,181.4173415376578,15.851386165761559,15.851386165761554,224.08063628065307
356.1904761904762,180.95687871784662,17.234896145796995,17.234896145796995,222.85838356136446
356.8067226890756,181.55623521791176,15.716452364516384,15.716452364516378,224.16417254101495
357.4229691876751,178.4007878740754,18.11075542864599,18.110755428645998,224.4852587216207
358.03921568627453,179.32408870749407,18.156773717399307,18.156773717399307,221.82968805211715
358.65546218487395,180.83838792317673,17.607701643994808,17.607701643994808,221.57326412561633
359.27170868347343,182.34238376343004,16.983143744480564,16.983143744480568,221.64385255377684
359.88795518207286,179.54001190176123,18.335148793966187,18.335148793966187,223.60042402675305
360.5042016806723,181.2005835948339,17.203707439703674,17.203707439703674,222.52133003322783
361.1204481792717,181.60548864139315,17.901822487652748,17.90182248765275,225.7373160900419
361.7366946778712,178.73698524704068,17.01840840625075,17.018408406250746,224.994048605634
362.3529411764706,178.38397193216622,17.74891486772524,17.748914867725247,228.209169589364
362.96918767507003,179.74989834465342,17.81254634001626,17.812546340016254,224.55967533601736
363.5854341736695,183.29718797401776,16.08996043369499,16.089960433694987,224.234306603859
364.20168067226894,181.84627483878705,17.930408282461062,17.93040828246107,224.65726488582467
364.81792717086836,181.92746901610542,16.92368545513682,16.923685455136816,224.5328462118775
365.4341736694678,180.1027104056435,17.143487294546862,17.14348729454687,220.6317314680796
366.05042016806726,177.83290926279489,17.435651627568202,17.435651627568202,223.52350684479083
366.6666666666667,181.56354101293434,17.17881710796048,17.178817107960477,221.02380653506006
367.2829131652661,177.31580719351356,18.005605081900935,18.005605081900935,224.17515936812543
367.8991596638656,177.84520013032588,19.13129578934951,19.131295789349508,221.0627857107263
368.515406162465,179.75063025346793,17.514142886264313,17.514142886264313,221.20533157774418
369.13165266106444,183.83815833345344,18.05981103269947,18.05981103269947,217.75672463633325
369.74789915966386,181.71726135975655,18.079118023261383,18.079118023261376,221.61809969989275
370.36414565826334,181.8559622757614,17.84239335088351,17.84239335088351,224.73620930833349
370.98039215686276,184.7648598061236,15.679136499247376,15.67913649924737,223.7840875142911
371.5966386554622,183.81985259927816,16.6901206443346,16.690120644334602,223.5861879898374
372.21288515406167,183.480185710007,16.236358763994726,16.236358763994726,223.8771256587327
372.8291316526611,186.6952931414003,16.085640267200457,16.08564026720046,224.592249720617
373.4453781512605,182.3262289382639,17.489412621698275,17.48941262169827,227.38745381123871
374.06162464985994,185.309553745629,16.378977281280285,16.378977281280292,223.83977709289866
374.6778711484594,186.04070291449727,17.354196534992976,17.354196534992976,227.01588298239943
375.29411764705884,186.72514630110143,16.64416939275632,16.644169392756314,222.96421701875943
375.91036414565826,185.5159616984179,17.388940699077317,17.388940699077317,222.88630957845743
376.52661064425774,183.57800379476686,17.267484595630005,17.267484595630005,223.89515646224277
377.14285714285717,184.58572203985318,16.431446086083216,16.431446086083213,226.87395398296857
377.7591036414566,186.10048471936798,16.12230986948767,16.122309869487665,226.32973133721504
378.375350140056,190.12437336351297,15.088710492811144,15.088710492811133,225.38600238002417
378.9915966386555,185.2095072008554,17.028574524541554,17.02857452454156,223.0861433063317
379.6078431372549,186.12111141190826,16.005735449946485,16.00573544994648,224.09119151534028
380.22408963585434,186.54271475583687,16.498207706560787,16.498207706560787,225.36891977771307
380.8403361344538,186.27253764134974,15.707248681813079,15.707248681813075,223.4666026756777
381.45658263305324,188.54725305702436,15.558842044505036,15.558842044505036,225.27444731739652
382.07282913165267,186.84976218839316,16.88590756464556,16.88590756464556,223.39749935336405
382.68907563025215,189.36803163659485,17.684281841049764,17.684281841049764,221.48373428593678
383.30532212885157,186.07501092189548,16.65479231487923,16.65479231487923,224.19672928178105
383.921568627451,186.83311221948483,15.63901352816442,15.639013528164424,225.26492683940242
384.5378151260504,188.61028767256118,15.65097119431866,15.65097119431866,226.62605947050358
385.1540616246499,187.0703312467005,16.11203327393014,16.11203327393014,222.45950632399538
385.7703081232493,187.86941522217825,16.287888424692085,16.287888424692078,221.8350587322886
386.38655462184875,191.46040685516942,15.706001769874241,15.706001769874247,224.456132312278
387.0028011204482,190.3120405943767,16.65067222566536,16.65067222566536,227.66526512395805
387.61904761904765,192.37348752227126,15.24906465033367,15.24906465033367,224.07997124964623
388.2352941176471,188.05921688796616,17.27213452151998,17.27213452151998,225.1022377417719
388.8515406162465,189.7767293016358,15.822085308511204,15.822085308511209,224.5872243514815
389.467787114846,190.80451738493,15.022603373074146,15.022603373074146,227.63834516363804
390.0840336134454,191.29103392478393,15.683811998844751,15.683811998844751,228.19070852976768
390.7002801120448,192.0972333745558,15.503397109130816,15.503397109130814,227.51035776234158
391.3165266106443,196.85954764538508,15.124451535821375,15.124451535821375,229.11470325956236
391.9327731092437,194.82485320752934,14.398502533924491,14.398502533924487,225.63558253645095
392.54901960784315,188.62480506517556,15.002928036189472,15.002928036189479,223.96672560968938
393.1652661064426,192.2255267580101,15.910883716853556,15.91088371685356,223.83794667797352
393.78151260504205,192.09096406853502,15.641438622899281,15.641438622899287,226.14535414057764
394.3977591036415,191.26681630938893,15.753049435210858,15.753049435210864,225.61030754015465
395.0140056022409,191.59775261841511,16.077016051078303,16.077016051078303,226.32497828108458
395.6302521008404,195.22054248512518,14.90308494453512,14.90308494453512,227.69544870211683
396.2464985994398,191.35575876279958,15.32972813701343,15.32972813701343,227.1404382042229
396.8627450980392,194.8203949089285,15.016544328706274,15.016544328706274,228.53166328601455
397.47899159663865,190.9386042742596,15.009522939224029,15.009522939224032,227.65384456062202
398.09523809523813,192.64979367633686,14.755792193496395,14.755792193496395,222.64934193873594
398.71148459383755,196.20193944884247,15.734019638749979,15.734019638749974,224.74771787720982
399.327731092437,192.16127831667126,16.531584332514953,16.531584332514953,224.67811037622755
399.94397759103646,190.19385971953886,15.173566144340786,15.173566144340791,225.60923537647543
400.5602240896359,190.56974899993168,15.673608123857946,15.673608123857946,226.16127487217875
401.1764705882353,190.34524683461493,15.369372995972968,15.36937299597297,227.4207812276918
401.7927170868347,194.01608536716492,15.135642426274964,15.135642426274964,227.42758204272488
402.4089635854342,192.7832342344392,15.87394877196892,15.873948771968921,221.78356989638243
403.02521008403363,192.08622585138446,15.536988692875026,15.53698869287503,226.65200070427588
403.64145658263305,192.47663726329975,15.052634024669244,15.052634024669246,223.74759566166017
404.25770308123253,193.44915631981985,15.068916776601831,15.068916776601831,222.46922447442395
404.87394957983196,192.89431273994694,14.05795000928726,14.05795000928726,225.2544987365336
405.4901960784314,194.16977969868327,14.854635922177245,14.85463592217725,224.60262365557514
406.1064425770308,194.3669953907046,15.501027258582717,15.501027258582717,225.32193063198142
406.7226890756303,195.6682599217898,14.086234151168217,14.08623415116822,228.49683779115273
407.3389355742297,194.78679339785594,14.628971714035421,14.628971714035423,226.9465095030792
407.95518207282913,195.71425006443792,14.935571963596937,14.93557196359694,225.42903915247797
408.5714285714286,196.35085714053105,16.473649507326126,16.473649507326126,226.0613000796911
409.18767507002804,194.65432353727587,15.548824869335151,15.548824869335146,228.56484347227706
409.80392156862746,194.08915608464036,15.148795971047734,15.14879597104773,227.08123644026304
410.42016806722694,193.68291655681458,15.150308421986834,15.150308421986834,225.4283420736238
411.03641456582636,192.56871164979827,15.500065708872375,15.500065708872379,226.62774235367934
411.6526610644258,194.61044855584808,14.603933766467456,14.603933766467451,222.6982509898669
412.2689075630252,195.07809786812567,16.235185197479232,16.23518519747923,222.76864270006516
412.8851540616247,197.9256329452977,14.47756783360147,14.47756783360147,226.2978584078443
413.5014005602241,198.096600913622,13.895918945786754,13.89591894578676,224.9689747219771
414.11764705882354,199.2605997551317,13.663997738873201,13.663997738873203,226.4355470915184
414.733893557423,195.45356229577908,14.688278977841621,14.688278977841621,224.4579074648002
415.35014005602244,197.17743307073573,14.570927915381555,14.570927915381558,225.77180366371368
415.96638655462186,199.2760222885934,12.584750868572373,12.584750868572373,229.61443289947846
416.5826330532213,200.99324658793182,13.843818154400207,13.843818154400216,229.4526556221513
417.19887955182077,201.54217694854066,13.367752616780315,13.367752616780315,230.21514148983098
417.8151260504202,202.99231378120268,13.387100333071022,13.387100333071022,229.16342786181602
418.4313725490196,200.42366248547074,14.691735989431841,14.691735989431844,227.46443920194227
419.0476190476191,200.2083454235667,14.785946574716863,14.785946574716863,226.97103523470795
419.6638655462185,200.29302024710458,13.696508145656846,13.69650814565685,226.73531387540186
420.28011204481794,198.55517681713806,13.654167017838253,13.654167017838247,227.75899063243642
420.89635854341736,198.05963284746966,13.464670298733786,13.464670298733786,229.12097511186684
421.51260504201684,198.8924818053388,13.651364827006606,13.651364827006606,227.95767512035974
422.12885154061627,201.41344850068413,13.148766753069454,13.148766753069454,229.3058095161662
422.7450980392157,199.67394397066627,13.423502998592351,13.423502998592351,228.6560766577567
423.36134453781517,203.56562715716868,11.70571402814511,11.705714028145104,230.36328856959074
423.9775910364146,204.81185449820492,12.779715199512276,12.779715199512278,228.62106480642208
424.593837535014,203.52879147634073,13.10522081573967,13.10522081573967,227.89096026715478
425.21008403361344,199.82719716959568,13.622821017119787,13.62282101711978,227.7171854397151
425.8263305322129,199.99588037018472,15.078949350390126,15.07894935039013,224.7177606387445
426.44257703081234,199.75999691892287,13.630105530427633,13.630105530427633,228.33835948456556
427.05882352941177,201.48237505964136,12.925080764886633,12.925080764886633,224.51319256477387
427.67507002801125,203.59003378988524,12.834473464304402,12.8344734643044,226.81254949032146
428.2913165266107,202.71529463760663,12.61567211923289,12.61567211923289,228.3359538456536
428.9075630252101,202.77864657215545,11.8894040797971,11.889404079797105,232.03948855012237
429.5238095238095,201.67154789642868,12.879226045976502,12.879226045976502,229.3792665127362
430.140056022409,206.82453806983148,12.035049062970026,12.035049062970026,228.15178259600998
430.7563025210084,201.69590586024108,14.703205749354083,14.703205749354078,227.79892491833127
431.37254901960785,202.0513297913322,12.36587569134004,12.36587569134004,227.7653085419725
431.9887955182073,201.5449405195512,14.211638950586162,14.211638950586162,225.24766279385133
432.60504201680675,201.3760994682854,13.03611196482613,13.03611196482613,225.20634250803414
433.2212885154062,200.24720601864317,14.269247664870376,14.269247664870376,225.75782013729417
433.83753501400565,202.22789916178672,14.16362860237239,14.163628602372388,225.0797367197073
434.4537815126051,201.8895442884621,12.551080193104871,12.551080193104871,227.91839991157315
435.0700280112045,201.5887962293659,13.754275080865845,13.754275080865852,227.24314200677784
435.6862745098039,204.24504166083324,12.957026818612974,12.957026818612974,225.8610659790124
436.3025210084034,203.84010372158653,12.485255850483744,12.485255850483744,229.63007794898138
436.9187675070028,202.7011358272313,12.767191827056603,12.767191827056603,226.85771149882478
437.53501400560225,200.2560195295648,11.939474674020092,11.939474674020092,228.93584290511572
438.15126050420173,204.35946691252073,14.106210179115084,14.10621017911509,224.16990473315593
438.76750700280115,203.89906783095446,13.169196593194812,13.169196593194814,228.62249393999997
439.3837535014006,206.59481059384166,11.69769712566014,11.697697125660135,226.52349151580395
440.0,205.60451621909598,11.957560142992463,11.957560142992458,229.48312392325124
440.6162464985995,207.534939504041,11.111275114401371,11.111275114401366,228.59274017695708
441.2324929971989,203.77193474143922,12.558923534478334,12.558923534478334,229.66429347162114
441.8487394957983,203.5489458231396,12.179546009883163,12.179546009883165,227.86532636373798
442.4649859943978,203.2138276534944,12.660009178743117,12.660009178743117,226.34768191686976
443.08123249299723,206.0878717413738,12.286018783845613,12.286018783845613,228.37526346875774
443.69747899159665,211.65991684454798,9.406013988389054,9.406013988389054,231.15809076444984
444.3137254901961,214.70899729218317,9.749085302006716,9.749085302006712,228.75748082742956
444.92997198879556,215.59627618770517,9.348451458216607,9.34845145821661,229.20430798232297
445.546218487395,215.16681927497248,8.880337042535448,8.880337042535452,231.52231681144022
446.1624649859944,213.79938626269342,9.552559707759585,9.552559707759588,230.72088697068247
446.7787114845939,212.92980082455315,9.5426263015738,9.542626301573803,231.66593811477884
447.3949579831933,214.2978939422794,9.375278951876444,9.375278951876444,230.0744202864378
448.01120448179273,214.05357804151288,10.192732530269106,10.19273253026911,230.8787021659566
448.62745098039215,215.16151001545003,8.521599325483061,8.521599325483065,230.8657989601606
449.24369747899163,214.35909704210897,9.970554289040477,9.970554289040477,230.57093238851226
449.85994397759106,215.60910529104052,9.099176838653712,9.099176838653714,231.15681060173088
450.4761904761905,214.49828398460437,9.120046568581406,9.120046568581406,232.39981576936577
451.09243697478996,214.7322427245391,9.343353862081695,9.3433538620817,231.91259552035967
451.7086834733894,213.78272802692769,8.437009786795004,8.437009786795006,235.4617130048576
452.3249299719888,214.64470476709994,9.472522187218015,9.472522187218011,231.09826494834184
452.94117647058823,215.66251764395017,8.924125729005803,8.924125729005805,232.43875422991837
453.5574229691877,214.7212707312385,8.840982507692479,8.840982507692479,233.1605882091862
454.17366946778714,215.2299788876136,9.561429346844973,9.561429346844976,231.41571319088138
454.78991596638656,217.57953859477084,8.288674755818489,8.288674755818487,228.94960888195112
455.40616246498604,216.1604791872499,9.084325989810417,9.084325989810418,229.92531170905255
456.02240896358546,217.34722476913643,8.356461415079549,8.356461415079545,228.86641735348132
456.6386554621849,217.0978550352598,8.812220886938373,8.812220886938375,230.7623771912485
457.2549019607843,214.79156528302906,9.127787934872957,9.127787934872952,232.01813053701474
457.8711484593838,217.09023607477042,9.560388634333702,9.560388634333702,230.5008704997103
458.4873949579832,217.7695919919097,7.932692233371297,7.9326922333712995,234.24694549875022
459.10364145658264,217.91379438017904,7.816548540250466,7.816548540250466,231.78215359741242
459.7198879551821,217.31096159834013,9.409324553008128,9.409324553008128,232.43500442359715
460.33613445378154,217.25993047651,7.967206665162459,7.967206665162461,232.88493044788248
460.95238095238096,216.44916220449616,8.615836258909312,8.615836258909306,231.51336442705022
461.56862745098044,218.47553743413195,7.859403698095895,7.859403698095898,232.5370604227254
462.18487394957987,217.06268164777018,7.628016533691238,7.628016533691233,231.90849576181913
462.8011204481793,217.502892610466,7.513004119241928,7.513004119241928,233.63395184704555
463.4173669467787,218.20252754415208,7.593553014011945,7.593553014011942,232.5461418382271
464.0336134453782,218.0899921799165,7.71124459917192,7.71124459917192,231.7001824170042
464.6498599439776,217.00934122818802,8.251228458019748,8.251228458019744,231.53516786343792
465.26610644257704,216.60695625982933,7.943292531526033,7.943292531526031,230.36967220458482
465.8823529411765,217.90081977344715,9.121079289786408,9.121079289786405,232.7664222343441
466.49859943977594,216.85394965750845,8.46464412649703,8.46464412649703,231.75835010043608
467.11484593837537,216.17008163848055,10.07104993151937,10.071049931519369,226.9344616863187
467.7310924369748,216.75659546821385,9.687862317457776,9.687862317457778,230.19920840436785
468.34733893557427,216.05910148668474,9.409172751926635,9.40917275192663,232.3596878944675
468.9635854341737,216.5428782102062,8.155264570161675,8.15526457016168,233.05865280110194
469.5798319327731,217.64076593723402,9.049296388755945,9.049296388755943,229.2382103361233
470.1960784313726,217.80127089984677,8.2795072577018,8.279507257701804,230.81790052809572
470.812324929972,217.2725303325975,8.624100978921668,8.624100978921668,231.27859282542417
471.42857142857144,217.95597913275463,9.597813084213932,9.597813084213936,229.51998403233995
472.04481792717087,220.2377337132742,8.413985868349982,8.413985868349982,231.6873088622358
472.66106442577035,220.15318815940805,8.701512507718517,8.701512507718512,231.3025256746185
473.2773109243698,218.4388681632608,7.978846745446934,7.978846745446932,231.65767160460774
473.8935574229692,218.99712080213877,7.49420767778591,7.494207677785908,230.85782164844142
474.5098039215687,218.6865954269718,8.125972537615983,8.125972537615983,230.44841126740397
475.1260504201681,218.5362452341126,8.467485110467841,8.467485110467843,229.89846463730464
475.7422969187675,218.19206002111835,8.564124473301009,8.564124473301005,230.38040346043246
476.35854341736695,217.98247211539706,7.103231758457962,7.103231758457964,232.46661627044665
476.9747899159664,218.53759268598017,7.350979941581725,7.3509799415817305,233.37080199103045
477.59103641456585,219.82763366249833,6.984543644067352,6.984543644067349,232.57316462801762
478.2072829131653,219.20628273994015,7.652457372892757,7.652457372892759,231.37653077342685
478.82352941176475,218.81463830370313,7.713015722696971,7.7130157226969684,230.5339877848081
479.4397759103642,220.17455992105724,8.432162683461563,8.432162683461561,230.59980578190508
480.0560224089636,219.368726581365,7.5139947891164285,7.5139947891164285,229.92106439583713
480.672268907563,219.98714795132904,7.566396587682396,7.566396587682398,231.74591641383262
481.2885154061625,220.7128556976953,7.118749241822989,7.118749241822985,231.63166331764444
481.9047619047619,219.3291001383457,7.534772950584778,7.53477295058478,232.0808985175305
482.52100840336135,220.23032724086772,8.170765892632293,8.170765892632291,229.62672490150845
483.13725490196083,219.10181553199595,7.945834708448935,7.945834708448934,232.05812716418683
483.75350140056025,219.8112465130591,8.164811138761566,8.16481113876157,229.1531761503743
484.3697478991597,220.56505416072554,7.967784769331424,7.967784769331426,228.6897177140757
484.9859943977591,220.56693313973904,8.739867031138187,8.73986703113819,230.08897784652376
485.6022408963586,220.39967645448993,7.338095692287162,7.338095692287158,231.34178069138878
486.218487394958,219.88083025742077,7.7466989862941125,7.7466989862941125,231.40266658241984
486.8347338935574,219.08218877428203,7.2776824110653,7.277682411065303,232.37830873737514
487.4509803921569,220.05436399174653,8.247466570077446,8.247466570077448,232.14298790151102
488.06722689075633,219.65021698613324,7.686061204106244,7.686061204106244,231.62281237320033
488.68347338935575,221.25097328556868,7.418380338038914,7.41838033803892,229.83161829152948
489.29971988795523,220.8723640092381,8.321687668177823,8.321687668177825,230.91361162171415
489.91596638655466,220.2879529654904,6.965678137859926,6.965678137859926,230.37850009114956
490.5322128851541,220.34099083290755,7.667100730539253,7.667100730539253,231.3501284196792
491.1484593837535,221.80050310892187,7.354718478305329,7.354718478305325,230.2372414261722
491.764705882353,219.69892883548286,7.333910357245101,7.333910357245104,232.56909336466134
492.3809523809524,222.64119169046623,7.201784062553492,7.201784062553487,228.36370507792628
492.99719887955183,221.64575671737788,7.625706766376608,7.62570676637661,233.0681333977247
493.6134453781513,223.27471650531947,7.083680040740069,7.083680040740067,231.42394936304038
494.22969187675073,223.81349053972187,7.556228457034515,7.556228457034515,230.55062104849355
494.84593837535016,221.26356546727004,7.939193797811692,7.939193797811694,230.06552531845307
495.4621848739496,223.66149712069003,7.386647814074857,7.3866478140748555,230.7453084891068
496.07843137254906,222.33972491390864,7.956329220023576,7.956329220023571,230.54726389147638
496.6946778711485,223.8363183676906,7.326700496937336,7.326700496937336,232.45991393997969
497.3109243697479,222.48855733822367,7.153447089635065,7.153447089635065,231.9845121148495
497.9271708683474,224.24347731441392,7.484509881937893,7.484509881937895,233.1247482238046
498.5434173669468,222.55146345528016,6.470038184548316,6.470038184548317,232.7067783761773
499.15966386554624,223.3457611696425,7.6328886847473525,7.63288868474735,235.16486217790987
499.77591036414566,223.93275972925056,6.806565990381671,6.806565990381671,229.50265288552342
500.39215686274514,223.52336835228883,7.250556859951381,7.250556859951385,232.741786689873
501.00840336134456,221.9310022604571,7.486418193752822,7.486418193752821,233.97914966826153
501.624649859944,223.67211907756885,7.855629240934653,7.855629240934656,231.0038710980708
502.24089635854347,224.46020702639126,7.435225176647875,7.435225176647876,230.9637828231124
502.8571428571429,224.76582275950835,7.343535186397945,7.343535186397946,229.73154684831292
503.4733893557423,224.17426188281243,7.4730703288177045,7.473070328817702,231.63550674646555
504.08963585434174,223.2875233465631,6.765306078381265,6.765306078381262,230.66710663084626
504.7058823529412,222.72808143004065,6.8986480981291285,6.898648098129131,229.0128552768745
505.32212885154064,223.15696062917405,6.8545266481924765,6.8545266481924765,230.1058686085768
505.93837535014006,223.81608716075178,7.484928257100316,7.484928257100316,233.5607792024851
506.55462184873954,224.0438009346695,7.445874086182106,7.445874086182106,230.95132738003002
507.17086834733897,224.63051548576905,7.2320990806007455,7.2320990806007455,232.55959132769394
507.7871148459384,223.41623719744362,6.803621518420729,6.803621518420729,232.31801109683832
508.4033613445378,225.72041369191427,7.139130195745486,7.139130195745486,233.56105005912318
509.0196078431373,223.79108543400542,6.834819411437455,6.834819411437455,231.76395298165414
509.6358543417367,224.16714799082075,7.988399243159418,7.9883992431594155,232.40250085907718
510.25210084033614,222.50836766451496,6.794402319576952,6.794402319576952,230.74688103393757
510.8683473389356,224.16734605675822,7.894727398393777,7.894727398393775,231.56290547742134
511.48459383753504,224.8813348632633,7.025381409555075,7.025381409555075,230.69694512551507
512.1008403361345,224.26970327030543,7.167719973099913,7.167719973099913,232.8851620110503
512.7170868347339,225.36401390260042,6.917008294538482,6.917008294538486,230.82717394976106
513.3333333333334,225.7031235268549,6.188871750972559,6.188871750972559,230.10935816236739
513.9495798319329,225.8195489779636,5.964393433635047,5.9643934336350455,230.96716309352655
514.5658263305322,226.2292408547624,6.92126787462461,6.921267874624612,229.68087513757192
515.1820728291317,225.86552560257059,7.086893654575215,7.086893654575211,229.98285173794343
515.7983193277311,226.53448365108773,7.171324132640746,7.171324132640747,229.9893203269312
516.4145658263305,226.50450806194553,6.954333514465418,6.954333514465413,231.24412430840175
517.03081232493,223.710684757199,7.531816572984246,7.531816572984243,233.2605939633037
517.6470588235294,225.0133593698686,7.155963484162176,7.155963484162176,231.09989583597292
518.2633053221289,225.27481801452186,7.025621184717932,7.02562118471793,231.99354767521663
518.8795518207284,225.75391715483798,6.38604897488547,6.38604897488547,231.8307636225186
519.4957983193277,225.71811030866826,7.164192051066298,7.164192051066298,231.9890810853139
520.1120448179272,226.0900287529,6.600830423039953,6.6008304230399535,230.43872540760174
520.7282913165267,227.88140618774858,6.6070350601286,6.607035060128599,229.7521309034346
521.344537815126,226.6977563233152,6.421222706801047,6.421222706801046,231.98703002202805
521.9607843137255,226.52014242950244,7.489337491479148,7.48933749147915,231.7906916453123
522.577030812325,226.11022664825782,7.154490265297568,7.154490265297566,232.51035342051128
523.1932773109244,226.08755440497106,7.074238478938672,7.074238478938669,232.29591044770865
523.8095238095239,224.8794560219395,7.5393242073812585,7.539324207381263,231.1617089655216
524.4257703081232,225.3373348543408,7.113999298554011,7.113999298554009,232.56815949127497
525.0420168067227,226.21191514096265,7.042901187469598,7.042901187469596,230.7835449221641
525.6582633053222,227.28748797652065,7.149120184049516,7.14912018404952,230.7440794712732
526.2745098039215,225.4372163061157,6.52911842919428,6.52911842919428,232.2224370342289
526.890756302521,226.45301116040218,7.055555795088433,7.055555795088433,230.13549385231357
527.5070028011205,226.44744408027506,7.159435315268032,7.159435315268035,230.53741776084644
528.1232492997199,227.34091492950174,7.535374579459264,7.535374579459262,231.50673990118213
528.7394957983194,226.50583700690996,7.429414916143972,7.429414916143974,231.29292932670214
529.3557422969188,226.27120646622438,7.148201262156884,7.1482012621568884,231.06714182787277
529.9719887955182,226.54559836567907,5.992562285479986,5.992562285479982,230.6076863678961
530.5882352941177,226.99494659675807,6.604933633800839,6.604933633800837,230.92843815250532
531.2044817927172,227.1597377545812,6.684749783407619,6.684749783407616,232.14488813388235
531.8207282913165,227.41452300569165,6.50060609668149,6.50060609668149,230.51244346099753
532.436974789916,227.71206816941827,6.582356194058208,6.58235619405821,232.19867636137408
533.0532212885155,227.9877826850429,7.033576804551866,7.033576804551866,231.82735205913582
533.6694677871149,228.48296606678167,7.267735764577297,7.267735764577297,230.51419914800496
534.2857142857143,228.3716380897642,6.5600645175083345,6.5600645175083345,232.13179096397556
534.9019607843137,228.147943687166,7.0238544344701,7.023854434470098,232.37142686191353
535.5182072829132,228.1087037856736,5.941879925778288,5.941879925778288,230.3234173469769
536.1344537815127,228.48540552382704,6.987017885760881,6.987017885760879,231.57648244967072
536.750700280112,228.72764258651955,6.7183324065839365,6.7183324065839365,231.56140832764694
537.3669467787115,228.93382477997795,7.117163060604436,7.117163060604435,232.26387721095136
537.983193277311,229.29947087658374,6.298278766232784,6.298278766232778,231.12599298306083
538.5994397759104,229.10296113063305,6.444670287978538,6.444670287978538,233.68715768014013
539.2156862745098,229.5782261276576,6.32327723296523,6.323277232965233,231.22707986127404
539.8319327731093,227.7421428983759,6.281633304780922,6.281633304780922,230.89257569639935
540.4481792717087,228.82635400125142,6.221191557896023,6.221191557896025,230.75737388246614
541.0644257703082,228.1408737797901,5.824142094029133,5.824142094029136,231.39529586242259
541.6806722689076,228.25184288651676,6.5655746295987605,6.565574629598758,232.7350539393202
542.296918767507,229.4562362390524,6.57987397923866,6.579873979238662,230.39529181057128
542.9131652661065,229.41434332913616,6.562764498545832,6.562764498545831,230.6773798500923
543.5294117647059,231.22809897294013,6.629555804780298,6.629555804780299,230.76502899507932
544.1456582633053,228.63565643764878,6.024746203756996,6.024746203756996,231.2454563400426
544.7619047619048,230.0579755025516,6.320483329701169,6.320483329701169,231.68252018384368
545.3781512605042,229.45510648537274,6.162947373615713,6.162947373615709,232.87840263792646
545.9943977591037,229.67410452670032,6.539785894951894,6.539785894951895,231.5654264565632
546.6106442577031,229.60521791923864,6.752780805788592,6.752780805788588,230.4056694428499
547.2268907563025,230.24800517790322,6.283474978202718,6.283474978202715,231.47111762266317
547.843137254902,230.94014658449075,5.985032693529148,5.98503269352915,230.14271383270008
548.4593837535015,229.92109545572944,6.177438944274316,6.177438944274316,231.8010863447192
549.0756302521008,229.78232208769526,6.600867365168,6.600867365168001,232.97065809360026
549.6918767507003,230.23492921329816,6.358248775391078,6.358248775391081,230.62930852514907
550.3081232492998,230.1294751917973,6.039998709128234,6.039998709128235,229.8344301531431
550.9243697478992,228.61733880274844,6.789083526588396,6.789083526588395,233.37650104376104
551.5406162464986,228.85887917970098,6.548180936877429,6.548180936877429,231.66413278450403
552.1568627450981,229.931051326466,7.005267554564917,7.005267554564919,231.6672650938592
552.7731092436975,231.14017391615104,6.714650879368821,6.714650879368824,231.9689651170421
553.389355742297,230.738329520344,6.536290993778862,6.536290993778864,230.85482835214418
554.0056022408963,231.77214922420248,6.139501243494191,6.1395012434941885,231.29064668624343
554.6218487394958,230.70228020379358,5.767324622466634,5.767324622466634,232.49755826886837
555.2380952380953,232.01470807051192,5.9697182322278275,5.969718232227829,232.8200735565392
555.8543417366947,230.46124498826862,6.069667872958245,6.069667872958243,232.74186697763182
556.4705882352941,231.7018885972148,5.365255076331975,5.365255076331975,230.77500830674234
557.0868347338936,231.5186019764234,6.223071805094622,6.223071805094627,232.23503517938656
557.703081232493,230.98400821929823,5.604289601038423,5.604289601038425,234.71996310883392
558.3193277310925,231.01166533490493,5.914751332540299,5.914751332540303,233.22980395057516
558.935574229692,232.46609188002648,6.063908727265695,6.063908727265691,229.51976639105425
559.5518207282913,231.91328919233146,6.561104254691402,6.561104254691402,232.9629033631633
560.1680672268908,231.03884945021537,5.4092890932563575,5.4092890932563575,233.3718015453761
560.7843137254903,232.97523715456276,6.720912974171335,6.720912974171328,231.97034959465626
561.4005602240896,231.90384816874814,6.106374076809509,6.106374076809509,233.61506794462997
562.0168067226891,232.22143837347429,5.964413851871097,5.964413851871098,231.29407988796376
562.6330532212885,231.40356399668713,5.48555497775193,5.4855549777519315,232.4313418102837
563.249299719888,233.23274259397587,5.862696772597556,5.862696772597554,230.1813174477593
563.8655462184875,233.16110776448312,5.636391284703508,5.636391284703508,230.78748651330434
564.4817927170868,233.12749640971128,6.304821089496557,6.304821089496555,231.09968844848
565.0980392156863,234.04552158812163,5.715085774559792,5.715085774559793,231.5041544752171
565.7142857142858,232.9180020976022,5.851615341787816,5.851615341787814,231.63725941099227
566.3305322128851,233.21185077712835,5.786798874849226,5.786798874849226,233.90497960664274
566.9467787114846,233.18331841888576,5.752831879790136,5.752831879790136,233.56088987646393
567.5630252100841,233.52213833756744,5.368884080801992,5.36888408080199,231.4256465261938
568.1792717086835,232.65537137695011,5.961656175840055,5.961656175840055,233.82849616695594
568.795518207283,232.9751517373735,6.564323279010767,6.564323279010771,235.54105596873453
569.4117647058824,233.44682219008826,5.5920102375170755,5.592010237517079,230.61881984692715
570.0280112044818,233.25048315718422,5.202286493068249,5.202286493068249,234.43902893517162
570.6442577030813,233.4807744228056,5.811043840159152,5.811043840159149,234.8860833399724
571.2605042016806,233.19735486972272,5.725700492798266,5.725700492798266,233.156936415108
571.8767507002801,234.20523489805342,5.308642912993346,5.308642912993347,233.93127248154514
572.4929971988796,234.38700137708398,6.036861394460186,6.036861394460186,233.36300885772886
573.109243697479,234.387190784398,6.0800757590905485,6.080075759090549,231.33620500151926
573.7254901960785,234.55915725725276,5.723054449223852,5.723054449223852,231.31465078253314
574.3417366946779,234.31828233858056,6.382563680301791,6.382563680301791,233.61745002765153
574.9579831932773,234.4985025791945,5.694927614515626,5.694927614515628,233.80575186071349
575.5742296918768,235.16541707270056,5.829708543658831,5.829708543658828,232.52520461142657
576.1904761904763,235.2386783686235,5.3149815098418625,5.314981509841861,231.65676700003877
576.8067226890756,234.68385781298318,5.592905067542995,5.592905067542995,232.33258564300306
577.4229691876751,235.3661780705238,5.358644683846262,5.358644683846262,232.19200642483545
578.0392156862746,234.35281415324428,4.988772160818602,4.988772160818601,233.44685006723944
578.655462184874,235.11874138949779,5.305331240309533,5.305331240309533,233.5090119977062
579.2717086834734,235.5733507880435,5.428744115758652,5.428744115758653,233.89648627849792
579.8879551820729,235.65330742187007,4.858982009430431,4.858982009430431,233.77580437955243
580.5042016806723,235.08436281123718,5.930597864228563,5.930597864228563,234.28317930147958
581.1204481792718,236.15902378094003,5.698130608215576,5.698130608215573,234.60595819755503
581.7366946778711,235.236846869689,6.838186285816198,6.838186285816198,232.9771451899761
582.3529411764706,234.77132359021383,6.35701261202584,6.357012612025838,233.40158591251372
582.9691876750701,234.9738051401161,5.534475116946246,5.534475116946245,233.7959739196624
583.5854341736695,235.53526924862337,5.605041365530717,5.605041365530716,232.7016740517154
584.2016806722689,235.35919726630797,5.471598810483382,5.47159881048338,232.41579820052223
584.8179271708684,235.90869400622097,5.44722675715969,5.447226757159688,231.95407015047346
585.4341736694678,236.3645586972295,5.7240974524669435,5.7240974524669435,233.14483655439602
586.0504201680673,235.02816203890902,5.950021719952987,5.950021719952987,232.8575194924643
586.6666666666667,235.4807812572256,6.466901037342804,6.466901037342804,232.86203130130065
587.2829131652661,237.27007262880844,4.179147619536478,4.179147619536479,231.40754868942614
587.8991596638656,235.81914756112397,5.31161942057485,5.311619420574852,233.25706719712898
588.5154061624651,235.69331941168736,5.6064934990493995,5.6064934990493995,231.82375692289085
589.1316526610644,235.87590551306954,5.40462648942024,5.4046264894202425,233.42081473282767
589.7478991596639,235.90839389225158,5.14664580571425,5.14664580571425,232.10877192899164
590.3641456582633,235.52062216427996,5.164084788853583,5.1640847888535815,231.38027800424376
590.9803921568628,235.54956441089294,5.523392871611859,5.523392871611859,231.96615276939232
591.5966386554622,236.67380089203246,4.918367842990541,4.918367842990541,231.16094251149934
592.2128851540616,237.15467051467402,4.807960408770516,4.807960408770513,232.36758393455517
592.8291316526611,236.89631919525652,4.7661740563698896,4.766174056369892,231.35775570256152
593.4453781512606,236.92447966189707,4.868098285103854,4.868098285103855,233.7493547684026
594.0616246498599,237.74071501131328,4.43393200641235,4.4339320064123475,232.9995947033448
594.6778711484594,237.91510520079936,5.261474328145768,5.261474328145768,232.23527187656703
595.2941176470589,237.09197885880346,4.889654115075701,4.889654115075702,234.09465831461924
595.9103641456583,237.72726751289807,5.059812440694934,5.059812440694931,232.91216766939587
596.5266106442577,237.07692787233793,5.8696765935709445,5.86967659357094,233.29256980288412
597.1428571428572,236.90778952241382,5.261179485761873,5.261179485761873,234.2423138401308
597.7591036414566,237.3258577660364,5.122440256714667,5.122440256714669,232.8298028795629
598.3753501400561,237.61549931104094,5.29411994787418,5.29411994787418,232.54214079718912
598.9915966386554,238.19516026694552,5.471769748665414,5.471769748665415,232.8983104660703
599.6078431372549,238.63840853786385,5.790991444816612,5.790991444816609,233.13710563832856
600.2240896358544,238.0836372487004,4.893926742047054,4.8939267420470545,233.48482968586643
600.8403361344538,238.80002357290465,4.9990588594896295,4.999058859489631,233.49207329255344
601.4565826330532,239.3889054615868,3.8752637439765505,3.8752637439765505,231.5977694950009
602.0728291316527,238.7744859727176,4.4477376289323765,4.447737628932377,231.49389809363075
602.6890756302521,239.11886027432726,4.883688604845882,4.883688604845882,233.3513468200049
603.3053221288516,238.86090137033315,4.6206417702338705,4.6206417702338705,231.3849150124027
603.921568627451,238.76305043205545,4.934299500855889,4.934299500855888,233.55347978266963
604.5378151260504,240.06433448317418,5.387663626145037,5.38766362614504,230.37338523657334
605.1540616246499,238.60348444583596,5.353836454225692,5.353836454225689,231.88825791321142
605.7703081232494,239.3583230409036,5.4425211493832775,5.442521149383278,232.97251518344794
606.3865546218487,239.5824759298136,5.715397962860511,5.715397962860509,233.91057045540228
607.0028011204482,239.31341235730852,4.700258078817983,4.70025807881798,233.19455893005335
607.6190476190477,239.38363826670806,4.159614313226865,4.159614313226867,234.66321131485054
608.2352941176471,239.55663430607004,4.542665107185876,4.542665107185877,233.89534837873362
608.8515406162466,240.4842791207424,6.279236138109455,6.279236138109455,233.46307082038973
609.4677871148459,240.3846734636105,6.665504149556181,6.665504149556179,233.14459016461765
610.0840336134454,240.2879358196521,4.880408894165656,4.880408894165658,231.32529835631175
610.7002801120449,239.39949413547538,5.0928263913464376,5.0928263913464376,233.9797208841586
611.3165266106442,239.85956056489488,4.542222907780172,4.542222907780172,233.31083736007855
611.9327731092437,240.0346806594558,4.865941623727586,4.865941623727591,233.37356703126673
612.5490196078432,240.24692755530052,4.349153754159271,4.349153754159273,233.7566022622073
613.1652661064426,240.47504694322888,4.8904796669189325,4.890479666918936,233.93546839889092
613.781512605042,240.8815640965845,5.315588546972778,5.315588546972781,231.69833391690082
614.3977591036415,240.92152115421302,5.79496234076555,5.794962340765547,232.4882358158933
615.0140056022409,240.5826615958307,5.508000322601555,5.508000322601555,233.82483384128068
615.6302521008404,240.92676232993566,4.651948699760254,4.6519486997602515,233.790516394648
616.2464985994399,241.42618997230218,4.948251643666421,4.948251643666418,232.34263016651715
616.8627450980392,240.50519910333568,4.02545083403986,4.025450834039861,233.2759816787103
617.4789915966387,241.56844172652018,4.509897609887016,4.509897609887015,232.09615147905936
618.0952380952381,240.74329250141625,4.840979077759015,4.840979077759011,233.94407861978462
618.7114845938376,240.59616805597898,5.631540850616252,5.631540850616253,233.46468433554227
619.327731092437,240.52524913928104,4.719821842240041,4.719821842240042,234.04103296401098
619.9439775910364,240.59609891362356,5.816267713021634,5.816267713021631,234.7312964366299
620.5602240896359,238.80028070651863,5.142540029714879,5.142540029714876,236.0773601064789
621.1764705882354,240.60532109920584,5.277222399396276,5.277222399396274,233.07072758385073
621.7927170868347,241.2118994475831,5.161111595767361,5.161111595767359,233.32453935088654
622.4089635854342,240.11293537460645,4.968231583767183,4.968231583767183,233.3520425599713
623.0252100840337,240.44689617832378,4.895547504184163,4.895547504184163,233.79741557475438
623.641456582633,241.4830599095571,5.092654786690556,5.092654786690556,233.10425232972074
624.2577030812325,240.5222361863878,5.449405909979261,5.449405909979257,234.39911969672144
624.873949579832,241.03072266773864,5.129788162094737,5.129788162094737,233.74395287071337
625.4901960784314,239.9114441022172,5.46640630678831,5.466406306788308,233.7466900651668
626.1064425770309,240.49191558010045,4.810177743286792,4.81017774328679,233.79666239925322
626.7226890756302,240.7647870144037,5.2804840154033545,5.280484015403354,232.91541159268434
627.3389355742297,240.8656167599796,4.9655369377902625,4.9655369377902625,234.29154168349004
627.9551820728292,242.26909069631955,5.4464382860194105,5.446438286019414,231.93558444038922
628.5714285714286,241.0796586739589,5.126201022156073,5.126201022156069,234.40498396090285
629.187675070028,241.17711179411367,5.070185984953521,5.070185984953524,233.28060823308604
629.8039215686275,241.0249428987147,4.436207445242063,4.436207445242065,233.89372406250072
630.4201680672269,240.2720755166678,4.917192976976064,4.917192976976066,233.1936898122961
631.0364145658264,240.82279403028397,4.738565580770524,4.738565580770524,234.38199788687012
631.6526610644258,242.93979956792143,4.741816650486225,4.741816650486226,234.6364624255998
632.2689075630252,241.17581943460303,4.692506361232253,4.692506361232253,235.1083446048955
632.8851540616247,240.7623869204052,5.699384700998397,5.699384700998398,231.62199587070288
633.5014005602242,240.59985354545395,5.467199757325986,5.46719975732599,232.10304362548337
634.1176470588235,239.4886884171119,4.810033366767662,4.8100333667676605,233.57624442283384
634.733893557423,240.20362445094645,5.987377444584504,5.9873774445845,232.77020661280443
635.3501400560225,239.27284326137573,5.409824367441385,5.409824367441387,233.46473384174882
635.9663865546219,239.45146036669468,4.037322805337753,4.0373228053377535,234.7250593898278
636.5826330532213,239.68081645969949,5.075703633709575,5.075703633709577,233.70923926475007
637.1988795518207,240.3885909207242,5.2732137032803275,5.2732137032803275,232.9557827004729
637.8151260504202,239.98522553640407,4.975216432936869,4.975216432936869,235.19817123141166
638.4313725490197,239.97665396897006,5.059883659504875,5.0598836595048775,233.5042516683104
639.047619047619,241.1097675437193,4.379611094288076,4.379611094288074,232.30005571574898
639.6638655462185,240.7245884865569,4.7328320697579604,4.732832069757961,232.73512187553288
640.280112044818,241.24296633645278,4.517865352369264,4.51786535236927,234.9825806496417
640.8963585434174,240.841646607134,4.047762593926811,4.047762593926811,232.99067696192685
641.5126050420168,241.1759650387693,4.512613665615105,4.512613665615105,232.91560249234232
642.1288515406163,241.2465164497119,5.037317917641985,5.037317917641986,233.34385445335923
642.7450980392157,241.26297971648825,4.914229434431321,4.914229434431319,233.92628547565377
643.3613445378152,240.15416259174452,5.399499152752177,5.399499152752179,234.12285227367485
643.9775910364147,240.69184748256035,5.145537409359454,5.1455374093594575,234.49040798608246
644.593837535014,241.04505981747542,4.588592141076767,4.588592141076767,232.8919378288756
645.2100840336135,241.10796380179195,4.530572637510704,4.530572637510704,235.32035959786404
645.8263305322129,241.29460142483592,5.608852117544271,5.608852117544273,233.86505254488554
646.4425770308123,241.52016211608384,4.983736980348277,4.983736980348279,233.65299613325016
647.0588235294118,241.49033734629862,5.435609543066361,5.435609543066363,234.57735172029487
647.6750700280112,241.4099602780624,4.90344703900392,4.903447039003918,233.91602601996124
648.2913165266107,240.92632443638547,5.209507665910767,5.2095076659107695,235.24828708321022
648.9075630252102,241.4053210073286,5.397067441851305,5.3970674418513,234.41466273413755
649.5238095238095,239.91634493994488,4.645198272443338,4.645198272443338,235.55500163980392
650.140056022409,240.4724156302377,4.551229880140961,4.551229880140962,235.69431729190006
650.7563025210085,241.25022379724172,4.847147957293285,4.847147957293285,233.63615861306107
651.3725490196078,242.44440514135917,4.876846726188619,4.876846726188618,234.52878309197246
651.9887955182073,242.02342831840053,4.33051698397234,4.33051698397234,235.37423267848732
652.6050420168068,242.26244274339214,5.640286003369336,5.640286003369336,234.54625964162784
653.2212885154062,242.340045652715,5.542420152318055,5.542420152318053,233.13672994497733
653.8375350140057,241.17660711276483,5.459668795812299,5.459668795812301,234.8228467989986
654.453781512605,241.30987176241928,5.543318223823339,5.543318223823335,234.44183218179808
655.0700280112045,241.3255518966183,5.227824757885895,5.227824757885895,234.37999004203465
655.686274509804,242.2958240308113,4.6121672794841935,4.6121672794841935,236.43784588240706
656.3025210084033,241.30432967159322,5.219192374276632,5.219192374276632,236.17927972787342
656.9187675070028,241.5724840456451,4.841552560150492,4.841552560150488,234.93997258567606
657.5350140056023,241.86331999961237,4.603185353228001,4.603185353227998,235.21986811779544
658.1512605042017,241.86093554347767,4.771020446302531,4.771020446302534,235.37923173985246
658.7675070028012,242.06416271212765,5.239444338054595,5.239444338054595,235.12908647482416
659.3837535014006,241.49813081558042,4.947586960343334,4.947586960343336,233.9759994258734
660.0,243.19544051931084,4.752636330868898,4.752636330868897,233.34624983140972
