z in mm,sigma xx in mm2,sigma xy in mm2,ysigma yx in mm2,sigma yy in mm2
660.0,238.73611021945533,5.944863044334747,5.944863044334747,225.3306045382269
659.3860465116279,238.73674557081978,5.643396406957728,5.643396406957728,225.14394732488455
658.7720930232558,189.96983207003697,11.61193878926141,11.611938789261407,169.59157675798647
658.1581395348837,189.37907094759058,11.113836093315461,11.11383609331546,166.1608521988427
657.5441860465116,157.32464921252088,11.140942436269754,11.140942436269754,128.51085524135115
656.9302325581396,158.7670591512747,10.866544942508709,10.86654494250871,125.5820742574988
656.3162790697675,156.51428315868608,11.621207856762508,11.621207856762508,127.27509280866157
655.7023255813954,156.2284954368616,11.938827179471506,11.938827179471502,125.49987266053998
655.0883720930233,155.97462929245344,11.285955907163677,11.285955907163677,123.6602607016686
654.4744186046512,156.30663423830205,11.50393651697453,11.50393651697453,124.73014319386314
653.8604651162791,156.98380914354414,10.86944939131988,10.86944939131988,124.32787629527374
653.246511627907,156.9697808866234,11.157525294688295,11.157525294688295,128.06891533830807
652.6325581395349,155.8829121190245,11.032203776231706,11.032203776231706,128.3891389045918
652.0186046511628,155.51307929184856,11.197310677317077,11.197310677317077,130.67596345967698
651.4046511627907,158.176044445305,11.156060345922963,11.156060345922961,131.22332137726048
650.7906976744187,160.35245847402945,11.312949690201844,11.312949690201842,132.32820393327916
650.1767441860466,158.12204366244833,11.164612151595781,11.164612151595781,131.2273903053168
649.5627906976745,159.91764323646004,11.401439274006526,11.401439274006528,130.7222691145522
648.9488372093023,158.8547712727748,11.421751417243469,11.42175141724347,130.46814543260584
648.3348837209302,161.37849613672356,11.941900762735733,11.941900762735731,132.65742435244726
647.7209302325581,159.50102539470836,12.287569408161806,12.287569408161806,129.86537958422173
647.106976744186,159.74683056863302,12.207605912640997,12.207605912640997,132.00600907634956
646.4930232558139,160.56002892554443,11.889108487327023,11.889108487327027,133.47330315903142
645.8790697674418,162.2434045259813,11.251278384743895,11.251278384743895,132.68291682864873
645.2651162790697,159.92909732437164,11.152622867100291,11.152622867100291,130.7532757916986
644.6511627906976,158.78111263526188,10.810678663948755,10.810678663948753,131.9435666575809
644.0372093023256,158.76510323796742,11.681554125788526,11.681554125788526,132.88831097940525
643.4232558139535,159.77183194553515,11.399903315779248,11.399903315779248,131.83036698995664
642.8093023255814,158.26926075761736,10.826622323870986,10.826622323870989,133.41797094564737
642.1953488372093,160.60428782341845,10.809300339746045,10.809300339746043,134.25960740256917
641.5813953488372,159.7007535500155,11.309876191775762,11.309876191775762,133.0081329849
640.9674418604651,160.08323165897323,10.651808963877901,10.651808963877901,133.8624767620353
640.353488372093,159.8094768312636,11.289742630038134,11.289742630038134,134.99067766718736
639.7395348837209,161.86314033044283,11.073859094059793,11.073859094059793,134.10728922741893
639.1255813953488,161.11753883897836,11.37414859937497,11.374148599374971,134.69366413098646
638.5116279069767,161.1105615439372,12.05165879113932,12.051658791139323,134.04351632239178
637.8976744186047,160.01139348204444,11.848789673275062,11.848789673275066,134.11529060146648
637.2837209302326,160.99429138277313,10.817749456993882,10.817749456993884,130.9545439489834
636.6697674418605,160.58386218883055,10.945566276536214,10.945566276536214,133.78810364776064
636.0558139534884,161.83005025912564,11.519704755067583,11.519704755067583,132.9279815921417
635.4418604651163,162.42955963990437,12.03284616054608,12.03284616054608,135.72751878114374
634.8279069767442,158.1690760574893,11.433092548419292,11.433092548419294,131.50503873225205
634.2139534883721,160.00650359395027,11.114488391678828,11.114488391678828,133.7675787203932
633.6,161.12531700509732,11.48292284171065,11.48292284171065,134.64005518629972
632.9860465116279,159.2479962676892,12.004175762397663,12.004175762397667,134.66097247618941
632.3720930232558,160.7270592386716,11.274073528044626,11.274073528044626,137.57057526378355
631.7581395348838,162.83151769898143,11.989644962693749,11.989644962693747,135.26591549225816
631.1441860465117,160.3558611002957,11.109287934959227,11.109287934959225,133.19209531029884
630.5302325581396,162.01017185513913,10.777550458492769,10.777550458492769,133.19566194349605
629.9162790697675,162.60132228668752,11.352947222884618,11.352947222884616,134.40607322082707
629.3023255813954,163.7227407064225,10.93094619881757,10.93094619881757,136.05384382370025
628.6883720930233,161.9024855842297,10.848394111611118,10.848394111611118,135.42861767868328
628.0744186046512,164.18124259422103,11.864514662815756,11.864514662815756,135.72403722154937
627.460465116279,164.98655041550785,12.348333416540312,12.348333416540315,138.9888091180034
626.8465116279069,163.92565128041164,11.11545256649655,11.11545256649655,135.19739613737053
626.2325581395348,163.86091550964304,10.79604392270097,10.796043922700973,136.5801634768905
625.6186046511627,161.43725768220682,10.902187915948156,10.902187915948154,136.155994662976
625.0046511627907,164.17154736918175,11.23768156359398,11.237681563593982,136.9521981253193
624.3906976744186,164.0717050827679,11.382503997773407,11.38250399777341,137.83920249111583
623.7767441860465,164.5045027524915,10.72676319209245,10.726763192092449,138.28707705807892
623.1627906976744,163.59599829651032,10.503855650983596,10.503855650983596,139.55257349723553
622.5488372093023,165.81900062873126,11.051557902503546,11.051557902503546,143.46322182903165
621.9348837209302,166.102639824951,11.573342226623058,11.573342226623058,142.11119774866862
621.3209302325581,168.96054623657707,11.993786141930498,11.993786141930498,141.42445282384463
620.706976744186,167.15971081411027,11.655485513455119,11.655485513455123,141.68884633623972
620.0930232558139,164.00873334340315,11.82221473501657,11.82221473501657,138.49004994118425
619.4790697674418,165.7670721726249,11.264202911678375,11.264202911678375,137.2124178568071
618.8651162790698,167.24693691025806,11.228600783566177,11.228600783566172,140.09127040679513
618.2511627906977,165.5781180342558,12.165406173915667,12.165406173915667,140.8219096398635
617.6372093023256,167.61765239526056,11.116609648813325,11.116609648813327,138.44289929900367
617.0232558139535,166.6315129048794,11.003793944794669,11.003793944794669,139.0645017180923
616.4093023255814,165.43725662773045,11.453237760662343,11.453237760662342,140.64196284982233
615.7953488372093,166.00513624883038,11.240781829470734,11.240781829470738,140.7384386174655
615.1813953488372,165.50861465053325,10.830261341293966,10.83026134129397,139.42394083581516
614.5674418604651,164.2551681749416,11.417963053011201,11.4179630530112,139.92873670882378
613.953488372093,166.569314858064,11.056039343257243,11.056039343257243,141.4645188251804
613.339534883721,165.68897736528655,11.946568891669571,11.946568891669571,143.1267295855386
612.7255813953489,166.530106241211,11.308665415143743,11.308665415143741,141.246236479667
612.1116279069768,166.83283083781683,11.320711698358796,11.320711698358792,143.95182794153285
611.4976744186047,165.52131376261136,12.041447367554015,12.041447367554019,144.4930424549215
610.8837209302326,166.97131623044854,11.218514391573258,11.218514391573258,139.35944025580778
610.2697674418605,164.74576830843958,11.110071692589214,11.110071692589214,140.470673780024
609.6558139534884,165.4271142903574,11.215280716372583,11.215280716372583,141.3861284599513
609.0418604651163,165.65467542695825,11.779748155322356,11.779748155322352,143.12420947088714
608.4279069767442,164.42669581430988,11.62066094640881,11.620660946408806,146.22143342698328
607.8139534883721,166.86518412145853,12.582175674971774,12.582175674971772,143.5335795811453
607.2,167.11757393016913,11.436002178875357,11.436002178875357,144.69830553896003
606.586046511628,166.57813687211697,11.544081934432052,11.544081934432052,146.6585344750736
605.9720930232559,166.27068620519915,11.259537558856758,11.25953755885676,147.033682187561
605.3581395348838,164.32487458532987,11.46218095834963,11.46218095834963,147.4960072685827
604.7441860465116,166.13947093832496,11.298865751985463,11.298865751985463,146.62958656821706
604.1302325581395,169.4187043291689,10.226732899335952,10.226732899335952,145.0708213303361
603.5162790697674,169.19069303521502,10.424482919578326,10.424482919578326,144.17038324712507
602.9023255813953,169.64645144597773,10.576314391483638,10.576314391483635,145.70620355021063
602.2883720930232,169.04744358640463,9.84236637184417,9.84236637184417,150.49594132541742
601.6744186046511,166.66509555664706,10.123617850007642,10.123617850007642,147.15996792296053
601.060465116279,166.51771749926786,11.751150049658698,11.751150049658701,147.05388742535243
600.446511627907,168.1704227089675,12.033482011334195,12.033482011334199,146.64048253407327
599.8325581395349,167.0448086866842,11.243114909096784,11.243114909096787,148.44953314226348
599.2186046511628,166.18367503006593,11.35753694557596,11.35753694557596,149.86476148000864
598.6046511627907,166.71136507148293,11.29110422008144,11.291104220081438,149.84919214183105
597.9906976744186,164.01056264169694,11.623682141872973,11.623682141872969,149.61848941643035
597.3767441860465,164.14451073272951,12.195571063666156,12.195571063666161,148.73731766676488
596.7627906976744,165.73204835503498,11.178275221384595,11.178275221384594,150.10287188729578
596.1488372093023,167.52850813697282,11.64992524705963,11.649925247059633,148.9258888227544
595.5348837209302,168.16488181124396,11.193933282433603,11.193933282433603,152.75248115373878
594.9209302325581,168.09641973858714,10.777075737257588,10.777075737257588,151.9607615979948
594.306976744186,166.4667656749812,12.01037112000749,12.01037112000749,152.62015690205612
593.693023255814,166.8724155580898,11.451473090083786,11.451473090083788,151.2350949266431
593.0790697674419,168.599980827093,11.969009021169507,11.969009021169507,150.70477619842544
592.4651162790698,166.50022730231376,12.159210244030946,12.159210244030948,150.91072097319983
591.8511627906977,166.9712641825381,12.225910059997771,12.225910059997767,149.5078265218985
591.2372093023256,165.5151492082203,12.062460497403633,12.062460497403633,152.3969348413318
590.6232558139535,166.51677575306002,12.625437782634437,12.625437782634437,150.76022539051266
590.0093023255814,164.13272312409885,11.857335756480474,11.857335756480474,151.6836090363732
589.3953488372093,167.27380580514432,11.237042336799137,11.237042336799137,147.39398578283186
588.7813953488372,165.96687061696505,12.305426574155817,12.305426574155817,150.9771241922408
588.1674418604651,164.20718341559817,12.20905911605392,12.20905911605392,153.35553897795842
587.553488372093,166.25370555491895,12.274700543499897,12.274700543499897,152.14267057284707
586.939534883721,166.23450456470792,11.939467606541069,11.939467606541063,152.28348711247867
586.3255813953489,165.3995072325753,11.320313868803789,11.320313868803789,150.93519864361792
585.7116279069768,166.0615429757129,10.896836080467688,10.896836080467688,152.24000701520487
585.0976744186046,166.2206006640121,12.59621043991072,12.596210439910719,151.72951712289756
584.4837209302325,167.61524117340716,10.879410181528803,10.879410181528804,153.2078798441288
583.8697674418604,166.17594324592747,12.030393946013133,12.030393946013133,152.61337299242732
583.2558139534883,165.92494821594613,11.041935917163997,11.041935917163997,151.14306996875368
582.6418604651162,165.06413257559137,11.406497995204209,11.406497995204209,149.37122908161894
582.0279069767441,166.11398751051144,11.089473198431335,11.089473198431335,152.03296858908993
581.413953488372,163.8956626426274,12.515078723969486,12.515078723969486,153.98974756250257
580.8,163.978488075769,12.916550687746216,12.916550687746216,153.69230143598585
580.1860465116279,166.13938829281312,11.791664315751792,11.791664315751797,154.3308839765472
579.5720930232558,167.2670727475997,11.478888128866425,11.478888128866423,152.40028067719433
578.9581395348837,167.28514376054656,11.859416064951045,11.859416064951047,155.37889586879163
578.3441860465116,165.88212821464458,11.769340121270355,11.769340121270355,155.29286946274806
577.7302325581395,165.59202759912847,12.378563204035588,12.378563204035586,155.69506654296922
577.1162790697674,166.1952297984683,11.877081989978032,11.877081989978036,154.99206771449053
576.5023255813953,166.16391163772096,12.018827177526617,12.018827177526616,154.39857068039962
575.8883720930232,167.49969125248583,11.608364420951053,11.608364420951055,154.32142148237511
575.2744186046511,166.61946416603448,12.209535804737822,12.209535804737827,154.14759429083549
574.660465116279,166.92454046648828,11.889259570236495,11.889259570236495,154.08399584698682
574.046511627907,166.83890478312935,11.34339189838912,11.343391898389124,157.57410024687297
573.4325581395349,166.4119800222861,11.921359401670307,11.921359401670307,157.88091144981763
572.8186046511628,167.71966722054566,12.162104876021715,12.162104876021717,154.84529498057387
572.2046511627907,165.36433478385325,12.023332498129305,12.023332498129307,158.75964810856067
571.5906976744186,166.2448584953918,12.161642661723521,12.161642661723521,156.8777145395398
570.9767441860465,165.7000337073462,11.304974648512204,11.304974648512204,155.3881963117937
570.3627906976744,165.8387046895006,11.083086139934903,11.083086139934903,159.14442841868006
569.7488372093023,166.21769977828203,12.370059208631417,12.370059208631417,156.890864614979
569.1348837209302,166.2480408059769,10.96770169359023,10.96770169359023,158.87751999198613
568.5209302325582,166.65621972986955,12.371701535574712,12.371701535574712,155.49846742217503
567.9069767441861,166.73293452742905,12.708521573452236,12.708521573452236,156.1782737035812
567.293023255814,165.0877486887649,12.595177479325182,12.595177479325184,158.21800420609537
566.6790697674419,166.98499015889604,11.439282219655682,11.439282219655686,159.93981989573152
566.0651162790698,167.78284471889498,13.013552364590943,13.013552364590943,157.5871329416414
565.4511627906977,167.21561273081358,11.626322047894451,11.626322047894451,157.32045962002022
564.8372093023256,165.49065811276927,11.404803210226643,11.40480321022664,157.12631782238682
564.2232558139535,166.00320600668923,11.620651152400432,11.620651152400436,159.14779939616426
563.6093023255814,164.96408779934254,12.856999731807484,12.856999731807484,156.7436801424791
562.9953488372093,166.20368489988607,12.2850549060036,12.285054906003602,158.44977315166247
562.3813953488373,165.9926583355537,12.75488694291818,12.75488694291818,159.3680182795581
561.7674418604652,166.08596799472346,11.938957137618019,11.938957137618022,159.80960134690864
561.1534883720931,165.6414352840655,12.967556904086033,12.967556904086035,161.0455892160864
560.5395348837209,168.60251433320732,12.48683154145909,12.486831541459088,161.08547411633614
559.9255813953488,169.7371550740835,12.4825499451739,12.482549945173906,160.90024428557828
559.3116279069767,167.76605056157106,12.70298392052622,12.70298392052622,162.39168546894268
558.6976744186046,167.4415147385302,12.399797054027356,12.399797054027356,162.86369037921162
558.0837209302325,168.32459050119928,11.794219594866107,11.794219594866103,162.3791397528932
557.4697674418604,164.33029988312256,12.445420772801151,12.445420772801151,159.7752890627374
556.8558139534883,164.02511214219112,11.414623160942053,11.414623160942053,159.5893069573783
556.2418604651162,166.50039875629682,11.230969036599113,11.230969036599111,161.86080038678998
555.6279069767442,165.53577043013365,13.413793226641996,13.413793226641996,162.4645462546122
555.0139534883721,168.90322332815276,12.6042364343682,12.6042364343682,162.5509642957168
554.4,166.11482078441009,11.956760007515198,11.956760007515195,161.23411854553822
553.7860465116279,166.01637780466118,13.417637263014239,13.417637263014239,165.46726392005118
553.1720930232558,166.27633764737882,12.661513366703812,12.661513366703812,163.4926862892803
552.5581395348837,164.82354010756922,12.504611925867856,12.504611925867856,163.69123423091594
551.9441860465116,166.65449960977216,13.450801787825586,13.450801787825586,165.0356510721382
551.3302325581395,166.81827121661203,13.263856760546052,13.263856760546053,163.33564018180815
550.7162790697674,165.9195596084025,12.116462661093106,12.116462661093113,163.1414236841962
550.1023255813953,167.34993638226135,12.677148761518426,12.677148761518424,164.63013758221518
549.4883720930233,167.002824511902,13.101750937059757,13.101750937059757,166.15465475233205
548.8744186046512,164.5721786181043,12.627071966526673,12.627071966526673,160.7674014114903
548.2604651162791,168.6557189237868,13.720130664454748,13.720130664454748,162.5903046652545
547.646511627907,166.36388057809077,12.978024245956512,12.978024245956512,163.41258246037006
547.0325581395349,166.6913652619682,12.5843619885688,12.584361988568798,163.10265058904486
546.4186046511628,165.8417387027936,12.513218954826993,12.51321895482699,163.5771570414463
545.8046511627907,164.71024105738616,12.887943807640902,12.887943807640902,163.68370811018875
545.1906976744186,165.1749180897155,12.790393878463405,12.790393878463405,164.4542134464096
544.5767441860465,164.37489865933162,13.429705728373133,13.429705728373134,162.13990619758755
543.9627906976744,165.1074837703361,12.849001328377973,12.849001328377973,163.4855125188668
543.3488372093024,164.7995536152481,12.677072411443458,12.677072411443458,161.4781527685824
542.7348837209303,166.43321915134214,13.054328447998163,13.054328447998163,163.18533282315866
542.1209302325581,163.58407163720295,13.265791721169764,13.26579172116976,161.8062776720392
541.506976744186,164.9799614603378,13.187496369241732,13.187496369241737,164.92490027595153
540.8930232558139,165.1010209672448,13.568148208331301,13.568148208331298,163.58354126249586
540.2790697674418,166.0241878898801,13.477318932722577,13.477318932722577,164.22692620657082
539.6651162790697,166.00748708949126,13.402486647361888,13.40248664736189,165.53160008406655
539.0511627906976,163.62362983094079,13.596145246281479,13.596145246281479,164.95493735130603
538.4372093023255,162.784886179742,13.89270653944239,13.892706539442392,166.29118497006422
537.8232558139534,164.48582915265135,13.185624870219547,13.185624870219547,164.15271297954496
537.2093023255813,166.4137345678796,13.762631795056917,13.762631795056917,164.60329653629964
536.5953488372093,165.25958149930227,13.30412132880007,13.30412132880007,163.765501269599
535.9813953488372,164.40537576847976,14.445647748350416,14.445647748350416,164.56131855930107
535.3674418604651,165.46859113934585,13.390876760197104,13.390876760197104,165.37247229049714
534.753488372093,163.87289519642243,13.138053686816912,13.138053686816916,166.62203325008159
534.1395348837209,164.85271154679893,13.598389585846686,13.598389585846686,165.12600571224473
533.5255813953488,165.22197004871947,13.859791601005254,13.859791601005249,164.98104806135598
532.9116279069767,164.63000544586308,14.26098214531307,14.26098214531307,166.0727900351289
532.2976744186046,164.3402578103277,12.602232519075956,12.602232519075956,165.7449435734079
531.6837209302325,164.76609670982094,13.588210064024391,13.588210064024395,164.49590733613047
531.0697674418604,162.6754737134795,12.857682848934553,12.85768284893455,164.41959905061134
530.4558139534884,165.4650959801636,13.833534941053243,13.833534941053246,166.4006053991292
529.8418604651163,162.80135909261907,13.028953955512419,13.028953955512419,167.5651033560377
529.2279069767442,163.30313006888025,13.615945850008927,13.615945850008924,165.36478331523412
528.6139534883721,163.88174217682163,13.77813637541636,13.77813637541636,166.35596534838155
528.0,163.84034326907752,13.799537340582244,13.799537340582248,167.50145523693928
527.3860465116279,163.37943738616315,14.010829040567616,14.010829040567616,165.69995592117922
526.7720930232558,163.82250825653588,14.099742167289838,14.099742167289838,166.26487792967538
526.1581395348837,163.12450082851734,14.047662200792045,14.047662200792045,167.8357099846938
525.5441860465116,162.53070003607863,14.461860926516433,14.461860926516433,167.98759252932365
524.9302325581396,163.73323336368261,13.304034360728815,13.304034360728817,166.79886102451596
524.3162790697675,164.17502269845212,13.931890634409967,13.931890634409962,169.32854201491142
523.7023255813954,164.85142536807263,14.095406911547972,14.095406911547972,169.1857828602543
523.0883720930233,166.56700707017114,14.49347384234171,14.49347384234171,166.52838146493553
522.4744186046512,164.5219481346219,14.15917582006465,14.159175820064652,167.41981490200595
521.8604651162791,165.16014885872085,14.454010259839732,14.454010259839729,166.84894333863704
521.246511627907,165.05416379817618,14.203154781509772,14.203154781509765,168.02696059595658
520.6325581395349,165.99854954186796,14.322556067012739,14.322556067012739,170.1286023938755
520.0186046511628,165.231419471537,14.147934664939669,14.147934664939669,169.25692749526357
519.4046511627907,164.11283231122698,13.735546417905171,13.735546417905173,168.51398467938802
518.7906976744187,163.07185212650575,14.272042208094659,14.272042208094659,171.46956896429617
518.1767441860466,164.31205389175986,14.493591894004176,14.49359189400418,169.95298137027055
517.5627906976745,164.5530058978713,13.640896293363658,13.640896293363658,169.42385035423376
516.9488372093024,164.50956037771417,14.538983288680528,14.538983288680528,171.0988443757035
516.3348837209302,166.1370415387841,15.566205066160576,15.566205066160574,172.62926056562003
515.7209302325581,164.84047590906812,14.100149929078595,14.1001499290786,172.39719951671395
515.106976744186,164.61475901554354,14.109968031931391,14.109968031931395,171.69882476314717
514.4930232558139,165.8623570595657,14.31167404582099,14.311674045820993,169.58294984520103
513.8790697674418,164.46519802384148,15.585877345588214,15.585877345588212,171.60586744194174
513.2651162790697,165.47756491868688,14.19885630069399,14.19885630069399,170.63542593048192
512.6511627906976,164.07227674007999,14.60937520202991,14.609375202029907,171.02318353851098
512.0372093023256,164.78560693561835,14.126650028129589,14.126650028129587,173.22036788817914
511.42325581395346,167.50807233595557,15.32344071978438,15.32344071978438,172.19980240390473
510.80930232558137,166.72803734110389,14.158249644861245,14.158249644861243,169.42907982552836
510.1953488372093,167.93679399858107,14.512239123631545,14.512239123631545,174.48914012158465
509.5813953488372,166.98244891429806,14.659893808269565,14.659893808269565,172.34274926595185
508.9674418604651,165.97799949888756,14.272963837760146,14.272963837760146,172.40911279781935
508.353488372093,167.0131118996713,15.813770634051828,15.813770634051822,172.54364776879862
507.7395348837209,165.34916783767426,15.181511298331229,15.181511298331232,172.44552113420713
507.12558139534883,166.10023244668153,14.89521267085585,14.89521267085585,176.9855740932437
506.51162790697674,166.39331042300338,15.280352225303378,15.280352225303378,177.33910896569603
505.89767441860465,167.01799200553236,15.516112084698559,15.516112084698552,173.56370156255446
505.28372093023256,165.09472638649183,14.9669538845212,14.9669538845212,174.5621688868383
504.6697674418605,166.5954466853316,15.768821551521384,15.768821551521384,174.61766722436295
504.0558139534884,166.5755781697143,14.579766904828595,14.579766904828595,176.43426740649173
503.4418604651163,166.91402615522873,14.838264668062514,14.838264668062521,177.3160897849058
502.8279069767442,167.37942458143132,15.448536693863014,15.448536693863014,174.22862532945055
502.2139534883721,168.22988927973853,15.435315098386102,15.4353150983861,177.948407063563
501.6,166.90384266409978,15.454018091372667,15.454018091372667,175.66389492600752
500.98604651162793,164.5061823528002,14.98776050432141,14.98776050432141,172.93490066064825
500.37209302325584,166.25874855608615,15.190592408568715,15.190592408568715,176.07617153394926
499.7581395348837,164.7560504525225,15.176889172495505,15.176889172495509,173.6471402376656
499.1441860465116,164.50076767059204,14.998316137375959,14.99831613737595,176.4498759965594
498.5302325581395,165.17371646736063,15.555774484618295,15.555774484618295,173.37304872829026
497.9162790697674,167.7332327765555,15.395534500771227,15.395534500771227,174.519325364225
497.30232558139534,165.2063978128272,15.591290974764354,15.591290974764354,175.52684957051918
496.68837209302325,163.62511664690842,16.52170007633563,16.52170007633563,175.9533754634313
496.07441860465116,161.85280840832297,15.469016857143524,15.469016857143522,174.37286862437972
495.46046511627907,164.08174375724968,16.37696620846207,16.376966208462072,174.29998617545502
494.846511627907,162.46753833916046,15.199401570714034,15.199401570714034,173.0514875208055
494.23255813953483,163.39926043604703,14.671948454829252,14.67194845482925,178.39613565735502
493.61860465116274,164.308274377734,15.35515813397818,15.35515813397818,173.6373187399052
493.00465116279065,164.64340904953613,15.06882555898737,15.06882555898737,178.07216632365225
492.39069767441856,162.8667252901738,15.375079905618945,15.375079905618945,176.97344261586144
491.77674418604647,163.56977603518536,15.931614285246564,15.931614285246567,176.5637528275753
491.1627906976744,166.13566674497415,15.43984873507625,15.439848735076252,178.33176865723289
490.5488372093023,165.61404451353408,16.91216075700625,16.91216075700625,177.43187077963896
489.9348837209302,162.5694570160024,15.532936670643945,15.532936670643942,178.43728584972533
489.3209302325581,164.20419978706107,16.206808402028273,16.206808402028276,176.00841985409247
488.706976744186,166.53230748583135,16.555885716795956,16.555885716795956,177.1667415836949
488.09302325581393,166.27915980373146,16.498247722131794,16.498247722131794,177.96423960057365
487.47906976744184,166.46057085861196,16.152727186219856,16.15272718621986,177.69783039139477
486.86511627906975,166.58781304777645,16.381580947157847,16.381580947157847,179.38449068612522
486.25116279069766,167.18600360336922,15.474977286542348,15.474977286542346,177.47990144505468
485.6372093023256,166.25364923418397,16.180782168436014,16.180782168436018,177.6328200823546
485.0232558139535,166.03258824590765,17.669698859838473,17.669698859838476,179.78889582680065
484.4093023255814,164.2704741028913,16.00503800164407,16.00503800164407,181.08763281779244
483.7953488372093,167.1660519782642,15.610201527455606,15.61020152745561,179.61683665090197
483.1813953488372,168.37540336158486,16.363614156348213,16.363614156348216,178.61277463721922
482.5674418604651,169.19164461352324,16.730901288521338,16.73090128852134,181.48235976961143
481.95348837209303,167.0599825488673,16.432098608221708,16.43209860822171,182.86546451580668
481.33953488372094,164.91599227895443,16.607999665829873,16.607999665829873,182.29999451924374
480.72558139534885,166.25787138736362,17.02103500722491,17.02103500722491,182.12788970970715
480.11162790697676,167.36441506649635,17.17734784790646,17.17734784790646,182.85802887725407
479.4976744186047,166.85874693086953,15.8889116993818,15.888911699381806,180.01287120095066
478.8837209302326,167.80706773850585,17.04697095175486,17.046970951754858,180.62369379203602
478.26976744186044,166.30892741681566,16.55165545011701,16.551655450117014,182.10975426197794
477.65581395348835,166.77827427808276,16.476365720296535,16.476365720296535,180.78825264037272
477.04186046511626,164.8175436411924,16.521439583961868,16.521439583961868,180.09529793899873
476.42790697674417,164.52180877828866,17.171134727850134,17.171134727850138,181.5045614958867
475.8139534883721,164.11523642562614,16.838685223575276,16.838685223575276,182.4392394357737
475.2,165.0459490100299,16.98863463535354,16.98863463535354,182.32633587776408
474.5860465116279,164.77358407201015,16.900524680389847,16.900524680389847,183.75744590497493
473.9720930232558,164.2900550778431,17.322857365185044,17.32285736518504,182.56999407457465
473.3581395348837,164.354850070481,17.96571314054175,17.965713140541755,185.79839491326382
472.7441860465116,164.56023671043118,16.591069410040472,16.591069410040472,183.5607364495333
472.1302325581395,165.89834411893295,16.706938904723838,16.706938904723838,185.5492959761408
471.5162790697674,166.0452689312366,16.84875713943316,16.848757139433168,183.6390001585758
470.9023255813953,165.21417925470033,17.06291502801588,17.062915028015876,183.1172384425902
470.2883720930232,166.4098716276885,16.797055753608998,16.797055753608998,182.68686272234572
469.6744186046511,166.41129841516022,17.6362257292554,17.6362257292554,182.9846979428161
469.06046511627903,166.9558595485366,17.40987833029857,17.409878330298575,185.36684780730795
468.44651162790694,166.81443155616037,16.866058752856322,16.866058752856322,184.6981176188106
467.83255813953485,167.13872212285278,16.944127268364753,16.94412726836476,184.5431749533338
467.21860465116276,167.5313723072221,16.773807602170578,16.773807602170578,183.78724899777657
466.6046511627907,166.93617332008958,16.815186023394855,16.81518602339486,187.35867957442014
465.9906976744186,166.61344551222103,17.24435715373804,17.24435715373804,185.40296007994405
465.3767441860465,165.52530102334723,15.993906538493135,15.993906538493135,182.20387306754697
464.7627906976744,162.9948946848324,17.093133726278598,17.09313372627859,182.19100552614313
464.1488372093023,164.9451144934932,17.384198903137662,17.384198903137666,182.25291683297408
463.5348837209302,165.76818415834217,16.73575377426951,16.735753774269504,182.99044346781434
462.92093023255813,165.12800934030065,16.97557424441101,16.97557424441101,183.31788948765487
462.30697674418604,168.17893999362622,17.270487464312346,17.270487464312342,184.64477786923712
461.69302325581396,166.38573095552195,17.194535043491157,17.194535043491157,183.50018744743247
461.07906976744187,166.3210054505882,17.810525065426738,17.810525065426738,184.73898081974292
460.4651162790698,164.01361407996774,17.270513073964807,17.270513073964803,181.51757286896145
459.8511627906977,163.5900607315114,17.403664799901627,17.403664799901627,184.59143576339744
459.2372093023256,164.10108312469026,17.737047355073603,17.737047355073607,187.0417404854722
458.6232558139535,165.77448920579883,18.73642303185435,18.736423031854347,187.0592315329615
458.0093023255814,163.7247440739728,17.174471019773808,17.174471019773804,184.00810455039388
457.3953488372093,166.42166364674054,16.68652149760043,16.68652149760043,186.2695737713059
456.78139534883724,167.22875286244732,17.42359721939993,17.423597219399937,186.65046285257108
456.1674418604651,167.4502634219351,17.769633064133004,17.769633064133004,188.60864053112235
455.553488372093,166.18384052860674,18.4063053008866,18.4063053008866,187.27864819481405
454.9395348837209,164.1554696946956,17.758590497100105,17.758590497100098,187.0215715419291
454.3255813953488,165.07652515488417,17.06905338843209,17.06905338843209,187.26631204256438
453.71162790697673,166.07390858757643,17.444855834097073,17.444855834097076,186.65872784995491
453.09767441860464,167.28022955701258,17.694753505169455,17.694753505169448,188.14000090115317
452.48372093023255,165.51168221731425,18.234377912102858,18.234377912102858,186.37347297594548
451.86976744186046,163.7427923990742,18.12587612872036,18.125876128720353,186.79232934770098
451.2558139534883,165.72503127739012,17.8481246131584,17.8481246131584,186.18906644810346
450.6418604651162,165.00816732589885,18.450462512804087,18.450462512804087,185.1324011381074
450.02790697674413,164.60072276187267,18.05461140368915,18.054611403689147,186.24665296838378
449.41395348837204,165.99943028893034,17.53047566031812,17.53047566031812,188.8180774845736
448.79999999999995,164.10484816143386,17.941309271428462,17.941309271428466,186.83476277742352
448.18604651162786,163.5667185984471,17.51311537758994,17.513115377589944,188.78088071817402
447.5720930232558,163.61156507840028,18.58088631886922,18.580886318869215,189.28739110451505
446.9581395348837,165.79756726471584,17.076984894876464,17.076984894876464,189.75548277629449
446.3441860465116,166.52026960334905,17.82532415573499,17.825324155734993,190.7251687275212
445.7302325581395,166.90485862033788,17.748909177411846,17.748909177411843,185.75009621105764
445.1162790697674,166.3494486409763,17.77073980894862,17.77073980894862,188.25958290173253
444.5023255813953,166.49204271811604,17.670715079137775,17.670715079137782,188.06610186224924
443.88837209302324,162.99303431851746,18.674829958296474,18.674829958296474,188.6835405231438
443.27441860465115,165.69031150121828,17.478714909378787,17.478714909378784,187.3552427652933
442.66046511627906,166.44669133377965,18.612364913412026,18.61236491341202,189.44020476664198
442.04651162790697,165.18865388077995,18.764219273636996,18.764219273637007,188.59642325230226
441.4325581395349,165.2364943760793,17.52721041446728,17.52721041446728,190.72373963928203
440.8186046511628,166.4347908185161,17.883611127874676,17.883611127874673,190.33899507887813
440.2046511627907,166.6843881922823,18.16856256351608,18.16856256351608,189.70025206055988
439.5906976744186,168.3125883712753,17.31748890775893,17.31748890775892,190.71246967134536
438.9767441860465,165.45157125777325,17.885430967508185,17.88543096750819,191.7940466551988
438.3627906976744,167.49462908029395,18.235490534481812,18.235490534481812,191.51532964010562
437.74883720930234,166.0249011331757,18.232603719116824,18.23260371911683,191.53759409431262
437.13488372093025,167.23505608159516,19.066884427682538,19.066884427682538,191.53916532338258
436.52093023255816,167.49775449478466,17.795932131922015,17.795932131922015,192.2959971534642
435.90697674418607,167.37453420821046,19.007950744796396,19.007950744796396,190.3445565440773
435.293023255814,167.44413831009294,18.32227119424255,18.322271194242546,191.8290233483357
434.67906976744183,167.23448110756252,18.408712900166822,18.408712900166822,189.50620418911078
434.06511627906974,166.3517599940823,18.55257707338381,18.552577073383805,192.40185196333863
433.45116279069765,168.1940335792451,17.59124256967829,17.59124256967829,191.08337536774488
432.83720930232556,163.90478192311193,18.76870062033504,18.76870062033504,195.65137758364193
432.2232558139535,164.55963861875904,17.902200600301256,17.902200600301256,190.39739985428446
431.6093023255814,163.95317350443577,19.157972929987167,19.157972929987164,191.92152594676372
430.9953488372093,165.8667390546755,18.46736246305128,18.46736246305128,190.65152970924828
430.3813953488372,161.8679851347156,19.08844370735288,19.08844370735287,195.40475320459296
429.7674418604651,164.58315627018297,18.98035565658693,18.98035565658693,190.79346277299058
429.15348837209297,164.14498922340428,18.973070749755365,18.973070749755365,192.02691903743363
428.5395348837209,163.36777867737177,18.658443784353754,18.658443784353754,192.03657028969405
427.9255813953488,164.65686221723936,18.90532328807737,18.90532328807737,191.49967605610976
427.3116279069767,163.4383023102701,18.42391687975131,18.423916879751303,191.77433851504088
426.6976744186046,161.9828345048638,18.28473476377456,18.28473476377456,193.39061539115716
426.0837209302325,164.403457224804,17.998031187956816,17.998031187956816,194.42535650538113
425.4697674418604,163.58878009204707,18.918171982030337,18.918171982030334,193.81871936055015
424.85581395348834,162.7701241761595,18.17688223487447,18.17688223487447,197.40623961802186
424.24186046511625,162.175822739382,18.504976921481784,18.504976921481784,194.90317436386653
423.62790697674416,164.73792426009277,17.472726972483564,17.472726972483564,193.36931167831474
423.01395348837207,166.04900025367255,17.23772343568366,17.237723435683662,196.18831335809568
422.4,166.5186916944031,17.34087397025664,17.34087397025664,196.13672351138777
421.7860465116279,167.89394566706906,18.583525471161344,18.583525471161344,194.5522166502386
421.1720930232558,165.89832054579293,18.155637303586747,18.15563730358674,196.36487890142328
420.5581395348837,165.41253969432015,17.913979747741415,17.913979747741415,197.51865544640108
419.9441860465116,167.19078557595535,18.36768250795083,18.367682507950832,197.32270396803762
419.3302325581395,164.44644162871796,18.10046533463891,18.10046533463891,196.4776866096868
418.71627906976744,166.21049296646493,17.688787246510845,17.688787246510845,195.78745849109376
418.10232558139535,165.06644341520217,18.67888472049244,18.67888472049244,194.4618938432956
417.48837209302326,165.96480102822147,19.49738231679587,19.49738231679587,196.71471710655118
416.87441860465117,167.39513384254914,18.49556824358922,18.49556824358922,197.5682123473989
416.2604651162791,166.21756136214543,17.991618077952086,17.991618077952094,197.22673473338585
415.646511627907,165.45596325060023,19.464555292639474,19.464555292639474,195.0566389778032
415.0325581395349,166.51420868790086,18.27101928218125,18.271019282181253,196.11564878786288
414.4186046511628,166.4098323419055,18.622251849795397,18.622251849795393,192.91715029636407
413.8046511627907,167.73956528209595,18.074561388846202,18.074561388846206,194.9945827498096
413.1906976744186,165.69280366771028,18.661183317460498,18.661183317460498,198.574924295854
412.5767441860465,168.63516571316813,16.98767598661218,16.98767598661218,200.02752202047557
411.9627906976744,165.4424379944994,18.367898010148135,18.36789801014814,199.64890224663316
411.3488372093023,166.23976303843844,19.076963399138222,19.076963399138222,198.2486884660665
410.7348837209302,163.49722230768626,19.01157234664335,19.01157234664336,199.22547231248652
410.1209302325581,167.09443475864177,19.410174596148813,19.410174596148813,198.84687588500486
409.50697674418603,166.40327259680546,18.337656717223588,18.337656717223584,198.8448385312706
408.89302325581394,168.14426184021647,17.690605319476,17.690605319476003,200.56305859064943
408.27906976744185,169.51730968974755,18.331536947747143,18.33153694774714,199.03746796651032
407.6651162790697,164.8767693939504,17.45742253067372,17.45742253067372,201.70751636036476
407.0511627906976,164.79889771168087,18.607956858465446,18.607956858465442,200.47889793554313
406.4372093023255,164.05965177171564,18.12129083064566,18.12129083064566,202.47055230118627
405.82325581395344,167.7278277446991,18.816286577061536,18.816286577061536,202.25002802042744
405.20930232558135,164.920276420352,19.606061599159897,19.60606159915991,203.9172591150492
404.59534883720926,163.4136453052453,19.30167165156536,19.30167165156536,204.91785705429953
403.98139534883717,164.0087881387909,18.97289970765748,18.972899707657486,203.17589351161004
403.3674418604651,165.75799621826434,19.08388878561028,19.08388878561028,201.2582177157994
402.753488372093,166.82688417863676,18.407551056293272,18.407551056293272,203.426980365062
402.1395348837209,164.95319292310413,19.337294113201928,19.337294113201928,202.61837775433153
401.5255813953488,165.31386068609544,19.12215281151735,19.12215281151735,203.2820136086193
400.9116279069767,163.7257368327977,18.16767857576504,18.16767857576504,203.49799810238844
400.29767441860463,166.95651520191126,18.766210842183135,18.766210842183135,205.0143313436582
399.68372093023254,166.39182716763614,19.12708199946252,19.127081999462522,205.04481202869022
399.06976744186045,167.91047985865356,19.687977599095074,19.687977599095074,205.34138206457973
398.45581395348836,166.84228490605256,19.099869439750506,19.0998694397505,205.1778599100511
397.84186046511627,166.38546645377127,18.958606960335782,18.958606960335775,205.80738844361608
397.2279069767442,163.59933507857062,19.046448057726447,19.046448057726447,205.93246392674575
396.6139534883721,166.81022143659231,18.443809705899,18.443809705898996,205.3701942843548
396.0,166.84325661580957,19.623296157917256,19.62329615791726,208.3985172549753
395.3860465116279,166.41100157336467,19.33939791041771,19.33939791041771,204.64318946014834
394.7720930232558,164.44816494827393,19.641010636444655,19.64101063644466,205.97151840425855
394.1581395348837,166.23844378493683,19.644216577844706,19.644216577844706,205.23234674419118
393.5441860465116,167.02340163100882,18.953854285187983,18.953854285187983,206.7361807489435
392.9302325581395,165.85841083687478,19.48338026185502,19.48338026185502,205.94903156666498
392.3162790697674,164.89351555243329,19.43545941893963,19.43545941893963,204.74608333054465
391.7023255813953,165.81165243427517,17.762354820706207,17.762354820706207,207.11877674700935
391.0883720930232,165.96141739738354,19.372499240350766,19.37249924035077,205.74127390077325
390.47441860465113,164.54000909234603,19.57627158851881,19.576271588518797,207.6638472981848
389.86046511627904,164.37291475627794,19.658157549318563,19.658157549318567,206.92111319820714
389.24651162790695,167.21855601075805,20.004409557592417,20.00440955759241,209.26689934620333
388.63255813953486,166.06324294193604,19.60576504058687,19.605765040586867,204.572989908336
388.0186046511628,165.6840365837467,19.661577354764205,19.661577354764205,206.8113076769695
387.4046511627907,164.24182210978876,19.378521665130375,19.37852166513037,208.55643926167517
386.7906976744186,164.90031824426254,19.968261214801323,19.968261214801323,205.89605839994294
386.1767441860465,167.57908281500073,18.825744351538138,18.825744351538138,209.80425991273174
385.5627906976744,167.47313265651334,18.24991487048124,18.24991487048124,209.9288260966261
384.9488372093023,168.2823526544051,18.418309356460597,18.418309356460597,207.7366037851946
384.33488372093024,166.5184025332113,18.366729173672628,18.366729173672628,210.77432707697707
383.72093023255815,165.60175453623415,19.810521229056363,19.810521229056363,207.61806168784454
383.106976744186,165.19779302107563,20.431917634800286,20.43191763480029,207.700457917834
382.4930232558139,166.91753918091507,18.97302602922031,18.97302602922031,207.9622815566513
381.8790697674418,166.37063843453174,19.300980959269367,19.30098095926937,209.91181511675344
381.26511627906973,167.62334079087165,19.84010039333497,19.84010039333497,208.14731361149686
380.65116279069764,164.20774817471369,19.458382844250412,19.458382844250412,208.687377808683
380.03720930232555,164.5414020458226,19.51956129642627,19.519561296426264,208.81412189053702
379.42325581395346,168.03972080251302,19.77281090017772,19.77281090017772,209.9170239163811
378.80930232558137,168.89118716780607,19.103096816033933,19.103096816033926,210.1290730985503
378.1953488372093,166.87486886339508,19.32317149968707,19.323171499687078,208.73457266361493
377.5813953488372,167.90234762594906,19.13474030866775,19.134740308667745,210.80273473464214
376.9674418604651,163.65971367299116,19.19877319473321,19.198773194733207,210.6112311234737
376.353488372093,168.11001583998993,19.449574124835625,19.449574124835625,207.29929146718368
375.7395348837209,167.24795523425348,19.43948525469242,19.439485254692425,210.86381182001847
375.12558139534883,168.58465501267577,19.05579100246882,19.055791002468812,210.18709483470047
374.51162790697674,169.3043786540147,19.131250143931176,19.131250143931183,208.2632466323328
373.89767441860465,169.22732112001907,18.20298553062629,18.20298553062629,211.0483169366867
373.28372093023256,168.3779512123583,19.033669668381137,19.033669668381137,210.83090236983705
372.6697674418604,169.18490620953656,18.68566855067563,18.68566855067563,212.05262308739287
372.0558139534883,167.8598900306612,18.652514579816703,18.65251457981671,209.2910965827466
371.44186046511624,168.20556095920907,18.406465406482553,18.406465406482564,211.4228228334997
370.82790697674415,166.8250429510284,18.44678558718031,18.446785587180305,213.6468784045027
370.21395348837206,167.23245218401067,19.110441942729405,19.11044194272941,211.97075312770298
369.59999999999997,166.41767699953823,20.203787458817494,20.203787458817494,209.77733751125936
368.9860465116279,166.76792010489103,19.304928256344844,19.304928256344844,210.74628979522808
368.3720930232558,174.4959983486156,17.380329769804472,17.380329769804472,214.15406521065466
367.7581395348837,170.18999687042563,18.2863287812043,18.286328781204304,214.9980514050019
367.1441860465116,166.61553735808067,18.80966190922583,18.809661909225834,211.94584428625814
366.5302325581395,170.54370178113257,17.511386832227704,17.511386832227696,213.2090775070787
365.9162790697674,168.6586578449249,18.2807322253202,18.280732225320204,214.79739676948535
365.30232558139534,167.0664117671219,18.23786564879228,18.23786564879228,213.5368172192504
364.68837209302325,166.50199088811084,19.963384287075012,19.96338428707501,212.02807698265315
364.07441860465116,166.895144567783,19.206176608998984,19.206176608998984,212.67403596152755
363.46046511627907,167.4050143937406,18.65424049060451,18.65424049060451,213.69036585095503
362.846511627907,166.72436279556965,19.291545532832917,19.291545532832913,215.4572419763251
362.2325581395349,164.4851389868855,20.12162785224388,20.121627852243883,211.9603579014159
361.61860465116274,166.2772024716189,19.306845496203263,19.306845496203255,210.90796828708676
361.00465116279065,165.1392987718914,20.008110443453077,20.008110443453074,212.04724309767536
360.39069767441856,165.31081628752312,19.57731906516345,19.577319065163454,212.95408918320584
359.77674418604647,164.69683493606655,19.64547782126062,19.645477821260616,215.93033507471299
359.1627906976744,166.46714961911005,19.28340790935707,19.28340790935707,214.3977134869342
358.5488372093023,168.3926587223743,18.68833753316215,18.68833753316215,214.5298952929321
357.9348837209302,167.3070648423752,19.920186943652016,19.92018694365202,214.23113872628048
357.3209302325581,166.26488280933285,19.665894961431306,19.665894961431306,212.14359561834044
356.706976744186,165.0982077453177,20.215262087118333,20.215262087118333,211.3407643022012
356.09302325581393,166.22860837886805,19.118121500577768,19.118121500577768,210.3048202840496
355.47906976744184,166.21223565655447,20.02930800804651,20.029308008046506,213.48744770944057
354.86511627906975,166.94554209417407,20.012278495359197,20.012278495359197,211.93753133935925
354.25116279069766,166.1101350202379,18.91141671469054,18.91141671469054,216.13361908282485
353.6372093023256,166.7444575517092,19.50205254081878,19.50205254081878,215.2886634639178
353.0232558139535,168.12084115314963,19.082167027235222,19.082167027235222,215.2604615514412
352.4093023255814,165.1759885847583,19.179846677455032,19.179846677455036,214.83563118013785
351.7953488372093,166.00033140596184,19.33474542192952,19.33474542192952,215.6988320094327
351.1813953488372,164.05267312253986,20.073369401903676,20.073369401903676,213.3695426450707
350.56744186046507,165.39313862224262,19.685029253428947,19.68502925342894,214.36104208396839
349.953488372093,164.87820793049204,19.48019851390408,19.480198513904075,215.4795730730542
349.3395348837209,165.1742207727804,19.41474329875549,19.414743298755493,216.54672492730342
348.7255813953488,168.7160431773942,18.73224118906188,18.732241189061874,215.22421901218706
348.1116279069767,168.13971683336777,18.618795979291964,18.618795979291964,217.1223280651148
347.4976744186046,168.0344480828912,18.381477986125017,18.38147798612502,218.1561317393882
346.8837209302325,167.37998414726684,18.935698790625008,18.935698790625008,217.89515649354232
346.26976744186044,167.16835666591305,19.095663342781354,19.095663342781354,215.8567312085823
345.65581395348835,166.35874829240353,18.903620194451225,18.903620194451232,215.3533594564341
345.04186046511626,167.09742955953226,18.722610305648338,18.72261030564833,217.45264594957797
344.42790697674417,168.83761725774994,19.12395198752237,19.123951987522375,216.52918741530314
343.8139534883721,166.58045502520574,19.50263851688266,19.502638516882662,216.77169372438908
343.2,167.06479842919913,19.080903874577217,19.080903874577213,215.9114148803454
342.5860465116279,165.8770655281677,19.34887446457234,19.34887446457234,214.84978628630708
341.9720930232558,167.5292494475303,19.07543452444308,19.07543452444308,217.49588860086038
341.3581395348837,167.37119957842518,19.066187484611874,19.066187484611877,214.9766644039359
340.74418604651163,166.52635519619508,19.26049165027677,19.26049165027677,217.11552036859138
340.1302325581395,166.9634363908509,20.311292456860752,20.31129245686075,214.88513106781843
339.5162790697674,166.99917166179964,19.48380380175064,19.483803801750643,214.9307958113108
338.9023255813953,168.22139888861497,18.420258266487156,18.42025826648716,216.73364348349628
338.2883720930232,168.00965903314545,18.74327454175921,18.743274541759206,217.76980195641585
337.6744186046511,169.03799981768333,18.346488126715975,18.346488126715975,216.1964115149424
337.06046511627903,164.88455738179812,18.54673427192472,18.54673427192472,221.09535337416577
336.44651162790694,165.56161952442864,19.426180469523377,19.426180469523377,217.05641460740662
335.83255813953485,168.87877744196024,18.008075688929093,18.00807568892909,218.18995950817438
335.21860465116276,166.94474875317925,17.951902040126964,17.951902040126964,218.46535794303549
334.6046511627907,163.8145254115762,19.689489506193464,19.68948950619346,215.8745396897916
333.9906976744186,165.4187700111607,20.3804532505326,20.380453250532604,217.9816614227259
333.3767441860465,164.95823243012276,20.163845473977645,20.163845473977652,218.433755876571
332.7627906976744,168.96074054391158,19.632329054144627,19.632329054144627,216.86915504721313
332.1488372093023,167.86357663683444,19.649589557745276,19.649589557745276,215.99126667208486
331.5348837209302,163.87537046867482,19.524376059510768,19.524376059510768,217.1746241198549
330.92093023255813,165.8803623314505,19.274169525602908,19.274169525602915,216.9373483771673
330.30697674418604,165.49229247938163,20.758599985049216,20.758599985049212,216.16325767340817
329.69302325581396,166.989747963159,19.236792252407874,19.236792252407874,217.77770931962127
329.0790697674418,166.4335402982708,20.177486661950407,20.177486661950404,218.194802824686
328.4651162790697,164.57149471876272,20.31252790122102,20.312527901221024,217.095521944271
327.85116279069763,165.6139866597261,19.059050994550713,19.059050994550713,216.72329722961055
327.23720930232554,166.21879339282827,19.54021535367506,19.54021535367506,223.50222952236638
326.62325581395345,166.86020916423107,19.527929967364443,19.527929967364447,220.37185718334297
326.00930232558136,168.33128249493365,19.145267741915944,19.145267741915948,217.65130195724365
325.39534883720927,167.96195226500703,18.674667527259885,18.67466752725988,221.30902411285018
324.7813953488372,169.9150560154327,18.07014300095425,18.070143000954253,222.2933766898971
324.1674418604651,169.29176284260922,18.381608769223625,18.381608769223625,222.59304687569255
323.553488372093,170.65575146895833,18.079449270742163,18.079449270742163,221.83006856360421
322.9395348837209,168.26432545531515,17.95949681705339,17.95949681705339,223.42124318605812
322.3255813953488,166.60234473180313,18.949649573523068,18.949649573523068,223.32905938343632
321.71162790697673,164.70452897940297,19.992531524033758,19.992531524033758,220.34270523448185
321.09767441860464,165.10825796399507,20.159808991309934,20.159808991309934,219.00928705006362
320.48372093023255,166.88033218201033,19.13984955191185,19.13984955191185,221.35337744980404
319.86976744186046,166.02384738686396,19.928111536212462,19.928111536212462,220.14242490974164
319.25581395348837,163.84368140335016,18.591536621917307,18.5915366219173,222.228863652575
318.6418604651163,166.41623624123642,19.343394874670103,19.343394874670103,224.1833619186447
318.02790697674413,167.36923269939837,18.47118491848724,18.471184918487246,222.58602465764693
317.41395348837204,165.8180982718338,19.707918105080193,19.707918105080193,222.6749609665328
316.79999999999995,167.62600653082208,18.35703295791302,18.35703295791302,223.82923726524848
316.18604651162786,165.4333672463401,19.56102123196069,19.561021231960694,221.32469454871406
315.5720930232558,167.22670861823906,19.69506634898336,19.695066348983364,220.6795477924905
314.9581395348837,165.054279367911,19.889634194542257,19.88963419454225,219.94925536731765
314.3441860465116,165.4156691750303,18.973539331174358,18.973539331174354,223.78594596199306
313.7302325581395,168.53916878177174,19.356474342379418,19.356474342379414,222.9518565978258
313.1162790697674,167.4923721877631,18.718409784976597,18.718409784976597,223.9000813026288
312.5023255813953,168.22905669531792,19.124038712969984,19.124038712969984,224.99205289858196
311.88837209302324,168.13613595038711,19.16837702686229,19.16837702686229,222.45061623406147
311.27441860465115,168.33624099358508,18.20688982062882,18.206889820628827,221.657048581849
310.66046511627906,169.84945184186537,18.96825766975544,18.968257669755452,224.85506134743554
310.04651162790697,168.57401610085194,19.663597421252916,19.663597421252916,223.21679284914018
309.4325581395349,170.0779070162413,18.431370305396193,18.431370305396193,224.67933534764256
308.8186046511628,169.11376759699704,18.2084888951631,18.2084888951631,227.35962426295524
308.2046511627907,167.7396405883913,18.80590169288657,18.805901692886565,226.09132773164654
307.59069767441855,168.8462110422762,17.46304901257112,17.46304901257112,226.7914216898953
306.97674418604646,169.74240693805322,16.725757347813857,16.725757347813857,227.62800647553337
306.36279069767437,168.75198727424058,17.778445232222687,17.778445232222694,224.6113528809915
305.7488372093023,169.63812081046203,17.266517165395097,17.266517165395097,226.57693386504522
305.1348837209302,169.04883255548478,18.631171926789907,18.631171926789907,224.76888820503686
304.5209302325581,170.80516510755908,16.89683259796694,16.896832597966938,224.39553485107024
303.906976744186,169.99463209319765,19.190977534611086,19.19097753461108,224.00940226567633
303.2930232558139,168.9119681309604,18.464119546635768,18.464119546635768,226.40222902127692
302.67906976744183,170.13550393338474,17.832818212169222,17.832818212169222,224.34100450706154
302.06511627906974,167.27152048179335,18.397814767500556,18.397814767500563,225.85104570426097
301.45116279069765,167.9299480407788,19.133032791289867,19.133032791289875,225.79671255961318
300.83720930232556,167.52413819954808,18.07561153988393,18.075611539883926,226.70403552319266
300.2232558139535,169.22841811176377,17.92610494392394,17.92610494392394,225.81993558069203
299.6093023255814,166.33479340452212,18.95048699046853,18.95048699046853,226.47608930147663
298.9953488372093,166.48832085815,18.740028485266546,18.740028485266546,225.16914751176887
298.3813953488372,167.1652487085323,19.706113184787032,19.70611318478703,225.59866608681634
297.7674418604651,168.41023599250792,19.088757151526302,19.088757151526302,225.90580569377784
297.153488372093,168.28496133600837,18.57692203457788,18.57692203457788,226.5583724730172
296.5395348837209,167.72122450365794,18.545418492547995,18.54541849254799,222.37603003412005
295.9255813953488,167.4540413044157,18.629549029886956,18.629549029886956,227.57073982501734
295.3116279069767,167.6117501331214,19.052421938947766,19.05242193894777,224.37595206741912
294.6976744186046,169.15552571585127,18.995778942286613,18.99577894228662,227.11853417663335
294.0837209302325,166.232107728049,19.24864226492328,19.24864226492328,225.82872146949367
293.4697674418604,165.96932886352434,19.533907736963894,19.533907736963894,226.08859392752893
292.85581395348834,169.03184270246692,17.881003488967607,17.881003488967604,228.72617871913187
292.24186046511625,167.5915363351533,18.534853017728516,18.53485301772851,227.9753977852569
291.62790697674416,169.94101587042488,17.772858858181927,17.772858858181927,228.3609278689413
291.01395348837207,168.40380734200536,18.791469378862967,18.79146937886296,227.046396017165
290.4,166.9992635749076,18.786725313673276,18.786725313673262,226.40663310514398
289.7860465116279,167.86066575343077,19.639345104237982,19.639345104237982,225.09513188106453
289.1720930232558,168.5269553051454,18.45457423378966,18.454574233789664,227.77025280675272
288.5581395348837,167.45488070891517,18.077255806975646,18.077255806975643,227.8596206368048
287.9441860465116,170.46491222055255,17.965031288852305,17.965031288852305,227.71412640858924
287.3302325581395,168.5715440047306,17.232953335394004,17.232953335394004,229.48152080752843
286.71627906976744,169.9947072867904,18.020042988281176,18.02004298828117,225.068086824982
286.10232558139535,168.84023188731783,18.167118320832106,18.167118320832106,227.83862361755254
285.4883720930232,168.49107026466066,18.052365587286474,18.05236558728647,230.02109734113074
284.8744186046511,168.7757851955571,17.354936083915486,17.35493608391548,229.27238092022768
284.260465116279,169.80441730092804,17.95731125584963,17.95731125584963,229.50436015235562
283.64651162790693,170.5579022683461,17.766704364367722,17.766704364367726,227.7680658782585
283.03255813953484,169.06581389323495,18.408005693988972,18.40800569398898,230.15913041605958
282.41860465116275,170.59000825187388,17.81843734649027,17.81843734649027,229.26452463059286
281.80465116279066,169.51663676285492,18.645599990248122,18.645599990248122,229.14846181021247
281.1906976744186,171.682621709515,17.399247879448765,17.399247879448765,231.8008129593648
280.5767441860465,171.04749805756316,16.414331325865323,16.414331325865323,231.55877711899498
279.9627906976744,169.52584362282377,17.75738784895072,17.75738784895072,230.14884262716478
279.3488372093023,171.12845866739235,16.402477402266683,16.402477402266683,233.59029669381263
278.7348837209302,172.57793866986228,16.77303998988337,16.77303998988337,232.1138122380839
278.1209302325581,172.79928844246956,15.937171515011505,15.937171515011505,232.66829634348684
277.50697674418603,173.99634965367918,15.741814920812004,15.741814920812008,233.43923932362785
276.89302325581394,172.18808326506874,16.359049930412787,16.35904993041279,232.10052951496775
276.27906976744185,172.5866998274363,15.980825394654513,15.980825394654513,230.55330495115157
275.66511627906976,170.84099282267312,17.046683652280308,17.046683652280304,231.18068074756061
275.0511627906976,169.4846255254288,18.15052195046825,18.15052195046825,232.43586546362792
274.4372093023255,168.34736611161398,19.19022321672807,19.19022321672807,230.12491610566966
273.82325581395344,169.41167568767597,18.44671354113083,18.44671354113083,230.9180389191078
273.20930232558135,170.52320629139788,18.318443516313025,18.31844351631302,230.76299174552244
272.59534883720926,169.66540803211117,17.426125305038966,17.426125305038973,232.85024191170643
271.98139534883717,168.859491263783,17.89126303982,17.89126303982,228.31147436443155
271.3674418604651,169.7471869074172,17.485855030229313,17.485855030229313,230.60428669569043
270.753488372093,167.70549823951083,18.69812114128176,18.698121141281764,231.36476439112457
270.1395348837209,169.57662780447387,17.49067215106173,17.49067215106174,231.8004259691584
269.5255813953488,170.60479247568085,16.7624594265336,16.7624594265336,233.10083767046527
268.9116279069767,170.95351418050856,15.7044037239606,15.704403723960596,233.40161546512113
268.29767441860463,169.64431043579748,16.9266687162271,16.9266687162271,236.16753190247857
267.68372093023254,170.5937068125836,16.9612835824557,16.9612835824557,234.53522990691602
267.06976744186045,170.70915724360316,16.8524494025163,16.8524494025163,233.4659525032771
266.45581395348836,171.41097183563545,16.995895984802612,16.995895984802612,233.13723863383575
265.84186046511627,170.3687433153716,17.478572465580857,17.478572465580864,233.8047330194367
265.2279069767442,169.85208098383393,16.837518162411172,16.837518162411172,232.48237763099607
264.6139534883721,171.7551829080329,15.647869936622962,15.647869936622962,233.9808505797282
263.99999999999994,171.57966555301397,16.19515851385806,16.19515851385806,234.27197205714958
263.38604651162785,172.0487790124154,15.358055848394853,15.358055848394853,234.9522466598534
262.77209302325576,172.72107507268723,16.052714726763504,16.052714726763504,236.54545345998758
262.1581395348837,171.98898397231517,16.453627792472172,16.453627792472172,234.71406328839973
261.5441860465116,169.65683603791703,18.252553893232307,18.252553893232314,234.88488488465856
260.9302325581395,170.27401463551257,17.90947797535939,17.909477975359394,235.79042036562078
260.3162790697674,173.24736634112222,17.91295113552565,17.91295113552565,235.38961841224383
259.7023255813953,171.8347846179019,16.393598811240356,16.39359881124036,234.61570163922727
259.0883720930232,169.91176360646142,16.93056532172794,16.930565321727947,235.30961878824283
258.47441860465113,171.09286573653614,16.250680633468622,16.250680633468622,232.74662394248386
257.86046511627904,169.69953375839356,16.711558736161663,16.711558736161663,234.2176435581967
257.24651162790695,169.0487796264455,18.163298905018543,18.163298905018543,234.07980398580406
256.63255813953486,168.95844398766508,17.41912222725591,17.41912222725591,234.52162407553155
256.0186046511628,171.06952780447142,16.867305591721106,16.867305591721113,235.39331570631734
255.40465116279069,171.20150590017755,16.603361669617563,16.603361669617563,233.7728862949398
254.7906976744186,170.84814693677853,17.29905591154676,17.29905591154677,233.69828889417087
254.1767441860465,171.85324660377313,16.07655097888227,16.07655097888227,236.03353538773897
253.56279069767442,171.84086107103573,16.157867526995496,16.1578675269955,236.55198681460814
252.94883720930227,171.75717483608474,15.686875518031707,15.686875518031707,235.6556345411556
252.33488372093018,170.6047244672989,16.72038964160265,16.72038964160265,234.89935888828325
251.7209302325581,170.6694594351794,16.86439558257571,16.86439558257571,235.93526178609213
251.106976744186,172.6809432902684,16.560417681438683,16.560417681438686,235.26874427152046
250.4930232558139,172.19534235024653,15.387941537855994,15.387941537855994,236.1650027581826
249.87906976744182,170.1954137037015,16.04698479450891,16.046984794508916,237.8689452753203
249.26511627906973,173.3054068448891,15.898322024442093,15.89832202444209,234.50420756314696
248.65116279069764,173.82708357301115,15.942004934738597,15.942004934738597,234.21215877917157
248.03720930232555,171.99529094889317,16.1893245034135,16.189324503413502,236.81337348078793
247.42325581395346,171.76609448646337,16.26146294670873,16.26146294670873,235.80650776929673
246.80930232558137,170.84671332302406,16.093029478598996,16.093029478598996,235.86575277960196
246.19534883720928,172.4001564075449,15.61279973211737,15.61279973211737,235.409239885814
245.5813953488372,171.92839331762227,15.812795391042442,15.812795391042442,235.3751445046393
244.9674418604651,170.8227424038273,16.3777940085017,16.377794008501706,234.39748984847864
244.353488372093,170.12775428357475,16.569878533915475,16.56987853391548,237.02664018880722
243.73953488372092,171.20887885382837,15.978256223141651,15.978256223141651,236.23955246769958
243.12558139534883,171.72357783936084,16.357833922312267,16.35783392231226,235.04777851032424
242.51162790697668,171.53620832998578,16.742806601344352,16.742806601344355,234.4810107762861
241.8976744186046,172.93171435790805,15.233101637160603,15.23310163716061,236.8770693613464
241.2837209302325,171.11492728079517,16.033106337381973,16.033106337381977,238.67120799672531
240.66976744186042,174.4913825348745,15.313583242267777,15.313583242267777,236.57376648962907
240.05581395348833,171.19180832045546,16.557479601226962,16.557479601226966,236.60470640723483
239.44186046511624,172.25970154860946,15.701077576407785,15.701077576407775,236.84528521822685
238.82790697674415,172.7162260000905,15.460038280225373,15.460038280225373,238.6602418714783
238.21395348837206,172.75168929175848,15.213044429283027,15.213044429283027,237.3228600271377
237.59999999999997,173.48420228370014,15.604064075780704,15.604064075780704,238.32049968824845
236.98604651162788,174.5443190159594,15.70236746752115,15.702367467521146,236.25114926334186
236.3720930232558,174.46203501488995,15.69808168356682,15.698081683566823,237.45672796676504
235.7581395348837,173.9181007257671,14.797903700948106,14.79790370094811,237.8868926071663
235.1441860465116,173.35726059203117,15.803847779873141,15.803847779873141,238.09331925072155
234.53023255813952,173.80282293473996,15.83223060724259,15.83223060724259,238.58188582357005
233.91627906976743,173.89535923759735,15.223107403724176,15.22310740372418,239.20215217911849
233.30232558139534,174.36599769947512,15.402081846629022,15.402081846629018,238.9387836372229
232.68837209302325,174.31579396411885,14.317467638391769,14.31746763839177,239.39469359480665
232.07441860465116,174.92107095448063,14.15332417310941,14.153324173109409,239.36167525941156
231.460465116279,173.7840097634583,14.359308409797418,14.359308409797421,238.44379261884237
230.84651162790692,174.5037366980784,14.786120962724224,14.786120962724231,238.4795792207365
230.23255813953483,173.64555527054713,15.923572719261058,15.923572719261065,235.85491093957128
229.61860465116274,178.7695374249874,19.64972609720604,19.64972609720604,236.608178510809
229.00465116279065,173.22922111864744,15.458875775901163,15.458875775901149,237.2274153428098
228.39069767441856,174.0698210455322,14.751548601109414,14.751548601109414,237.47218750315506
227.77674418604647,175.3955380590407,14.855565518206332,14.855565518206332,237.8408482422748
227.16279069767438,176.431081845426,14.806318034714984,14.806318034714991,240.94897484338279
226.5488372093023,174.75280308826217,14.698248139466003,14.698248139466,240.60961229599525
225.9348837209302,175.50866795110556,15.000177273181079,15.000177273181079,238.9334136559913
225.3209302325581,176.70115030303796,14.529133379756814,14.529133379756814,242.27641093314512
224.70697674418602,175.791347336129,15.232235687642074,15.232235687642074,240.1243137525553
224.09302325581393,177.0610852919971,15.27968978747103,15.279689787471023,239.11413573956827
223.47906976744184,177.92341403520768,15.43476620671323,15.43476620671323,238.9490879038551
222.86511627906975,178.25846408572977,14.94203489118323,14.94203489118323,240.17079364800745
222.25116279069766,177.91638616144445,15.417676540070264,15.41767654007026,240.86167598564177
221.63720930232557,176.56753472029988,15.555048667725476,15.555048667725476,238.1110259904897
221.02325581395348,178.09189890297867,16.14742734171364,16.147427341713637,235.40326930181246
220.40930232558134,177.12276204625633,15.372749125283402,15.37274912528341,237.32655350139936
219.79534883720925,177.065232027951,13.836580908254327,13.836580908254328,239.74704131946692
219.18139534883716,175.82377661751144,15.290341297547311,15.290341297547311,240.71140169912434
218.56744186046507,177.11596689302067,15.180550344890525,15.180550344890525,238.9174793326491
217.95348837209298,176.43160960582432,15.369490187652744,15.369490187652737,239.15280142669147
217.3395348837209,176.48828792838168,14.795783717062198,14.795783717062198,237.5897470699911
216.7255813953488,176.1709038782717,14.585334050512982,14.585334050512975,237.7296409154455
216.1116279069767,174.25968475917017,15.295076540147365,15.295076540147365,240.47637204227033
215.49767441860462,175.89960722274301,15.16950784194209,15.169507841942089,238.0245045552883
214.88372093023253,175.58815698975837,14.491543666289104,14.491543666289104,240.36495998150355
214.26976744186044,174.71485022732276,15.480084975629396,15.48008497562939,238.99079708710744
213.65581395348835,175.12324419861255,14.762701689740782,14.762701689740778,239.11294625183422
213.04186046511626,177.20298839352603,14.349512691483866,14.349512691483866,239.38164691362098
212.42790697674417,175.85549062557823,14.351230189800408,14.351230189800408,239.10354616560198
211.81395348837208,175.6714877686919,14.442676671632807,14.44267667163281,241.83494292957448
211.2,176.3295936827732,14.52251845815309,14.52251845815309,239.411414972401
210.5860465116279,176.61220290048797,14.477315217641772,14.477315217641769,239.9171476686223
209.97209302325575,177.85827985622635,13.864844418364884,13.864844418364877,239.98014829506047
209.35813953488366,179.03130531807804,15.929633114594164,15.92963311459416,243.43332486917657
208.74418604651157,179.48999272996252,15.83743880947967,15.837438809479675,242.4862407225735
208.13023255813948,179.87178382581683,14.96805183026699,14.96805183026699,242.83288426282965
207.5162790697674,179.9528307344112,16.359609868994017,16.359609868994017,240.37152207930723
206.9023255813953,180.00984894661724,16.147726405502144,16.147726405502144,241.3213711007816
206.2883720930232,179.4472674374092,16.15065781079146,16.15065781079146,240.93641010495259
205.67441860465112,179.58735003816446,16.2843700448032,16.2843700448032,242.15656116131663
205.06046511627903,179.64161078507092,16.15850117725146,16.15850117725146,242.1696419088125
204.44651162790694,180.13201557380918,16.10840124189734,16.108401241897347,240.35414904846917
203.83255813953485,178.57067234742985,16.353600110462743,16.353600110462743,240.28257257260287
203.21860465116276,181.4063664933442,14.72179483865762,14.721794838657624,240.39515452056818
202.60465116279067,181.42848981730393,15.427039534123137,15.427039534123145,239.70884875169673
201.99069767441858,179.72918342105913,14.782223746485695,14.782223746485695,242.18984283813282
201.3767441860465,180.32122076360494,15.15647382558211,15.15647382558211,241.05094241687843
200.7627906976744,181.76774252695552,15.385153597916476,15.385153597916476,241.7432996030071
200.14883720930231,181.242426692667,15.399622791355409,15.399622791355409,243.27851291974477
199.53488372093022,181.83309877935366,15.493342193375538,15.493342193375534,241.6624467898717
198.92093023255808,180.55801999747266,15.210479901144947,15.210479901144947,240.4727830923258
198.306976744186,179.6494010254656,14.897185355912526,14.897185355912521,242.25507079413316
197.6930232558139,180.25550926113723,15.068419928158011,15.068419928158006,239.827197495541
197.0790697674418,180.20123878684012,15.23175374996651,15.23175374996651,242.78295700187243
196.46511627906972,181.42560366333527,15.347496229740234,15.347496229740234,241.25215875902208
195.85116279069763,180.63655765590897,15.140496683073867,15.140496683073867,241.26262695451683
195.23720930232554,182.1240362311498,15.253057440143836,15.253057440143833,240.3073024671801
194.62325581395345,180.0870972680604,15.522486587825997,15.52248658782599,241.32395285671632
194.00930232558136,179.595706421658,15.796833595329499,15.796833595329497,242.97394506280008
193.39534883720927,181.28397032095265,15.391245994788994,15.391245994788994,240.7940337504694
192.78139534883718,182.12737425138084,15.4268180925173,15.4268180925173,241.715917071886
192.1674418604651,181.38240861435625,15.125634388006565,15.125634388006565,240.21541926418467
191.553488372093,182.001873153844,14.840595299905823,14.840595299905823,242.46716429142566
190.9395348837209,181.65366799361698,13.504864982649158,13.504864982649158,243.0475786161915
190.32558139534882,181.76662069476976,15.763350149008668,15.763350149008671,241.20512196368009
189.71162790697673,182.20506553719522,15.109604840076303,15.109604840076303,241.3980702805868
189.09767441860464,182.3551553246161,14.4440066733695,14.4440066733695,239.825849827462
188.4837209302325,183.80602065135744,14.259065114338007,14.259065114338007,239.66735668473714
187.8697674418604,183.030427059692,14.68879031628189,14.68879031628189,238.11347817774842
187.2558139534883,185.67311372642484,13.25151609696702,13.25151609696702,238.92957986086302
186.64186046511622,183.96061151540312,14.19069787177503,14.190697871775022,238.3954588247479
186.02790697674413,185.72294145446526,13.678383827702557,13.678383827702557,238.65297343237154
185.41395348837204,183.8887714095083,13.508478728085747,13.508478728085754,239.040251058812
184.79999999999995,185.33866522713097,13.174486322935211,13.174486322935207,238.83805157582657
184.18604651162786,185.89269094804808,12.978367641034183,12.978367641034184,238.04975491510456
183.57209302325577,185.48399482514057,14.167265359725878,14.167265359725878,239.14304810654008
182.95813953488368,185.66784360703508,14.447061081177054,14.447061081177054,238.5552374259701
182.3441860465116,185.00414645404533,13.933216186843465,13.933216186843477,239.83906271731993
181.7302325581395,184.65017568215586,13.374924571734988,13.374924571734985,238.56391529153063
181.11627906976742,184.78165089631256,13.142344939428384,13.142344939428384,239.11880188323798
180.50232558139533,186.4832041688791,13.046456187533117,13.046456187533117,238.30237630837328
179.88837209302324,184.8513458390176,13.64806394430077,13.648063944300775,237.60935741626247
179.27441860465115,184.16847254451156,13.928275510556679,13.928275510556675,237.19272356290742
178.66046511627906,184.1538685349719,13.784384629370182,13.784384629370178,238.55143291429277
178.04651162790697,185.05892606421557,13.436936808894933,13.436936808894933,239.65238772375568
177.43255813953482,184.77880290860188,13.37383171016884,13.37383171016884,240.17185008367824
176.81860465116273,185.9326579087369,13.18122992437955,13.181229924379545,240.4048618903104
176.20465116279064,187.1360353330724,12.954135204459305,12.954135204459307,238.54832627736644
175.59069767441855,183.95232168663588,11.971827973491777,11.971827973491774,234.77214500059867
174.97674418604646,183.27722622322509,11.352425737266424,11.35242573726642,237.22125340655452
174.36279069767437,183.81469935494712,11.500106549714562,11.500106549714571,235.96492274771109
173.74883720930228,184.42984471933164,11.00013291791896,11.000132917918963,236.02900797557882
173.1348837209302,182.99501110453866,12.436956030113945,12.436956030113949,236.3235134102671
172.5209302325581,183.77488598917813,11.654798696167127,11.654798696167123,234.0031671963061
171.906976744186,182.92287124364435,12.780391264822823,12.78039126482282,238.3061021327187
171.29302325581392,184.41338073005468,11.020359772820404,11.020359772820408,235.48992416650725
170.67906976744183,183.85626997167589,11.243435931595176,11.243435931595169,234.38727721470747
170.06511627906974,182.86422802386755,12.098710822996336,12.098710822996338,235.21471024438753
169.45116279069765,184.08394007401998,11.474880485493108,11.474880485493111,236.21253608705058
168.83720930232556,183.77757049166144,11.313943870854716,11.31394387085471,235.26391620740617
168.22325581395347,183.72889058647036,11.51841378266564,11.518413782665641,234.86894182064563
167.60930232558138,182.5678748371039,12.36997249133853,12.36997249133853,235.51455134840202
166.9953488372093,184.64006453697175,11.50117926238736,11.501179262387357,234.776430663502
166.38139534883715,185.23474649868848,10.634938754739473,10.634938754739473,235.5952712813151
165.76744186046506,184.58170320767866,10.569792967844815,10.569792967844815,236.82501773694597
165.15348837209297,184.36129954907764,11.021557124717175,11.02155712471717,235.77349181791882
164.53953488372088,185.07271023424067,11.01911518116937,11.01911518116937,235.1627438217904
163.9255813953488,185.02774536421467,11.618652989583564,11.618652989583564,234.1212393327476
163.3116279069767,184.99672930296214,11.800791906001832,11.800791906001832,234.85160613985568
162.6976744186046,185.04936404257032,11.563813537473509,11.563813537473512,234.5705075692757
162.08372093023252,185.1427573831462,10.871369066209569,10.871369066209565,235.2837281745524
161.46976744186043,185.59912863524045,10.248261952075717,10.24826195207572,235.22081439022693
160.85581395348834,184.84817489050528,11.611926432401399,11.611926432401397,235.04621680026239
160.24186046511625,186.02133434501644,11.11756274706569,11.11756274706569,234.86160412708992
159.62790697674416,185.32260955916573,11.31096479768122,11.310964797681217,233.8551132589627
159.01395348837207,183.78846107602067,11.902348023424398,11.902348023424395,235.53776105090097
158.39999999999998,185.65582416411763,11.391006892322979,11.391006892322977,232.54349087508845
157.7860465116279,184.91512385785035,11.479489352304137,11.479489352304137,234.25297201668207
157.1720930232558,184.12480912478142,11.41938524193688,11.41938524193688,233.98569763899874
156.5581395348837,186.77379944465312,10.869392390513603,10.869392390513594,234.58412359028642
155.94418604651156,186.37466770901884,11.006120204148727,11.006120204148734,233.08074103798754
155.33023255813947,200.95910335790273,9.301842988095302,9.301842988095302,239.5838939958597
154.71627906976738,305.8044634567946,1.4551162935863957,1.455116293586397,321.0060908099495
154.1023255813953,311.19820456424094,-0.7210952065849419,-0.7210952065849408,317.00021700336384
153.4883720930232,310.8869234911667,-0.06194096754265653,-0.06194096754265848,319.9084084713929
152.8744186046511,311.4742679224607,0.3766415326363874,0.37664153263638617,319.5821952676373
152.26046511627902,311.37129130977047,-0.39098059624761394,-0.3909805962476143,318.72629397599246
151.64651162790693,312.6992608973111,-0.6897519898690433,-0.689751989869042,315.70499157567343
151.03255813953484,312.951579128022,-0.6809865841703947,-0.6809865841703945,316.937879816984
150.41860465116275,313.30268792834653,0.7807060838726195,0.7807060838726214,318.4929275026814
149.80465116279066,311.3651269372728,-0.5592720581463694,-0.5592720581463694,316.6772339298143
149.19069767441857,314.469768346618,0.03764817095845086,0.03764817095845266,316.8194590790258
148.57674418604648,312.45249116229127,0.02183596968371687,0.02183596968371705,314.98396625002823
147.96279069767434,313.89578787594735,-0.01726798524989642,-0.017267985249900017,313.724916322703
147.34883720930225,316.47602456551596,-0.47896025834348127,-0.47896025834348493,314.66822676503864
146.73488372093016,316.1738635331196,-0.10188064585535953,-0.10188064585535861,314.1638063268424
146.12093023255807,312.705034001344,0.017107689200118827,0.01710768920011562,315.4140538982253
145.50697674418598,310.83348605848676,-0.7128876110485466,-0.7128876110485486,319.6907511021133
144.8930232558139,311.6537450004036,-0.7660251415690519,-0.7660251415690554,320.4062612426282
144.2790697674418,314.173601416798,-0.1743125658956023,-0.17431256589560323,319.218579670906
143.6651162790697,315.00204253195534,0.493294709408437,0.4932947094084386,315.8634240813197
143.05116279069762,311.42047339769607,-0.026577798831555158,-0.026577798831555557,319.7114749357856
142.43720930232553,312.52951905354155,-0.8738530866999913,-0.8738530866999925,317.53838164179854
141.82325581395344,315.086432182855,-1.0563991104911894,-1.0563991104911887,316.5255295925826
141.20930232558135,312.5600733563891,-0.6851849685293194,-0.6851849685293193,314.1531555174848
140.59534883720926,316.7562366762495,-0.0433574151117225,-0.04335741511172125,313.60282054138173
139.98139534883717,311.4260377716621,1.74798168271518,1.747981682715177,316.6260054032946
139.36744186046508,312.6887198574394,0.8434791834333792,0.8434791834333782,312.8179032940695
138.753488372093,312.9119582734871,0.755300457873106,0.7553004578731081,313.5692823130498
138.1395348837209,315.5661634965791,-0.6028079295716263,-0.6028079295716267,311.14820752264933
137.5255813953488,313.72260236421135,-0.5340869083310973,-0.5340869083310976,318.282151255863
136.91162790697672,315.5571393660751,-1.1775130390739783,-1.1775130390739792,313.0931242333199
136.29767441860463,314.2578081602159,0.21362942817866018,0.21362942817866118,318.28573074348736
135.68372093023254,313.3749191075704,0.11302458657416342,0.11302458657416202,316.88210289399603
135.06976744186045,313.7250097408984,-0.09403187013647817,-0.09403187013647896,317.4313419577056
134.45581395348836,311.39205414215314,-0.7774297714550391,-0.7774297714550382,322.1887559280058
133.84186046511627,312.33362296558437,0.48495081129057677,0.48495081129057555,315.17912003883356
133.22790697674418,313.79791992293093,-0.6325134156988877,-0.6325134156988896,315.6243451369674
132.6139534883721,314.9059241404094,-1.2996144240112444,-1.2996144240112455,311.7731218775249
132.0,314.2990182524776,-0.06575465695841277,-0.06575465695840951,315.0323515767885
131.3860465116279,311.4319664661181,-2.7201920397135155,-2.7201920397135138,315.28010267325345
130.77209302325582,312.460774785872,0.7570906598881179,0.7570906598881179,317.28935210323175
130.15813953488373,313.64221054330704,1.6834598264495126,1.6834598264495142,312.5576335300535
129.54418604651164,313.72329678555434,0.0057238563822841915,0.005723856382286598,313.60688138537415
128.93023255813955,313.3480875619865,-0.23819683598373645,-0.23819683598373687,313.35817035255724
128.31627906976735,311.506482913074,0.2982591514557551,0.2982591514557555,314.6283697325681
127.70232558139526,314.2467068846723,-1.1370837826639582,-1.1370837826639602,312.3929146898586
127.08837209302317,311.6627584393145,-0.54913500084569,-0.5491350008456924,316.9262059642261
126.47441860465108,311.5157521543114,0.6234603400738351,0.623460340073834,318.6909267930957
125.86046511627899,312.6703640813224,-0.44531413588220325,-0.44531413588220553,317.16631074245004
125.2465116279069,313.72328733899496,0.5244303559432903,0.5244303559432919,315.3167089481359
124.63255813953481,310.6664104484565,0.014491114639839549,0.014491114639841025,317.1442309373318
124.01860465116272,315.4804962726251,0.31935951441020516,0.3193595144102054,313.31621190293026
123.40465116279063,311.7445373577531,1.0326777352490286,1.0326777352490264,319.9890448460792
122.79069767441854,311.7772803947385,1.9398404792499175,1.9398404792499122,317.99993539402834
122.17674418604645,313.12085761255577,-0.8484059936431961,-0.8484059936431962,316.0945468035669
121.56279069767436,312.49087638514135,-0.2126263916889449,-0.21262639168894312,318.4185311510463
120.94883720930227,314.23644942399216,-1.511723631318069,-1.511723631318071,317.0597909775375
120.33488372093018,314.7586154032139,-0.09110528531263885,-0.09110528531264145,317.75971251178714
119.72093023255809,314.0735843958858,0.4523269291116152,0.4523269291116146,317.3651018085745
119.106976744186,311.56084747128506,0.1722429484610997,0.1722429484610997,315.62535377320825
118.49302325581391,314.61644828785234,-0.36845306040804565,-0.3684530604080495,311.960101267978
117.87906976744182,311.6239953010931,0.9801561351211775,0.9801561351211773,319.27488290212085
117.26511627906973,311.4088319188601,-0.8794947714983425,-0.8794947714983439,316.44910947714646
116.65116279069764,313.6667094913496,0.023767789653078707,0.02376778965307831,314.8670540861337
116.03720930232555,314.3817806983277,0.11890116208195282,0.11890116208195356,313.0091361688977
115.42325581395346,313.3295345277904,0.8173400870088584,0.8173400870088584,315.1565163430422
114.80930232558137,312.70094816198787,0.4600032063765948,0.4600032063765953,315.6517369637859
114.19534883720928,314.1938103910035,-0.8753933873219347,-0.8753933873219342,313.8122634601491
113.58139534883719,312.1798340906943,0.6390801591805851,0.6390801591805844,315.37740861488214
112.9674418604651,312.18772561312363,-1.088505673044039,-1.0885056730440388,317.4339679160658
112.35348837209301,312.3183021883442,-0.6338736585207091,-0.633873658520713,317.4147230820125
111.73953488372092,313.5531457515356,0.3966787722755013,0.39667877227550036,316.9226586936437
111.12558139534883,311.35632685092,-1.6520998983443667,-1.6520998983443667,321.3693749366043
110.51162790697674,312.7122632922218,-0.4467980051079041,-0.4467980051079029,316.7894059338883
109.89767441860465,313.43768379387524,0.8517371210360141,0.8517371210360145,314.451248581419
109.28372093023256,311.5397433097454,0.6228196895913064,0.6228196895913034,317.42654321700513
108.66976744186047,311.9502234227221,-0.46416957665382186,-0.46416957665382136,315.52444937703103
108.05581395348838,312.2284465851262,-1.3633443269757328,-1.363344326975733,317.58411677463437
107.44186046511629,313.4556655782909,0.04562033816219519,0.045620338162195725,317.7374643259219
106.82790697674409,312.1954842209279,-0.2349587340941233,-0.23495873409412174,317.64092002214386
106.213953488372,311.27125850404326,-0.04151317907087567,-0.04151317907087694,314.20507783379134
105.59999999999991,314.35821153237373,0.3565125941444414,0.3565125941444419,313.95634602067804
104.98604651162782,312.46018736795554,-0.5465687450943743,-0.5465687450943724,316.2725535247303
104.37209302325573,313.3262404241047,-1.695465615325979,-1.6954656153259793,317.07574360593935
103.75813953488364,310.7665099238608,-0.3908504580706182,-0.39085045807061924,317.9157530624005
103.14418604651155,314.31413027740155,-1.6432436219096487,-1.6432436219096505,314.71262213215897
102.53023255813946,313.2659917891861,0.256637017766649,0.25663701776664644,318.50874587087964
101.91627906976737,313.7927748419417,-0.2146449132369887,-0.21464491323698914,316.24857525676913
101.30232558139528,315.4930314338194,0.2246095587766329,0.22460955877663363,317.78483863570096
100.68837209302319,314.6713268348031,-0.7254651061249493,-0.7254651061249515,317.0916452864575
100.0744186046511,312.5370080765709,-0.4264888183086095,-0.42648881830860824,317.1808759735289
99.46046511627901,313.3188415946125,0.37941269816076584,0.37941269816076206,317.9442329550284
98.84651162790692,314.18716901447823,-0.19130085133513652,-0.19130085133513738,315.58429534176514
98.23255813953483,311.83530996064127,-0.4090410435415327,-0.4090410435415311,318.07083521790645
97.61860465116274,313.1930341092307,-0.9220057650227967,-0.922005765022796,315.8561280581984
97.00465116279065,314.15502376447637,-0.5870221228186822,-0.5870221228186819,314.9507073635599
96.39069767441856,312.98285119887515,-0.6733460491180894,-0.673346049118088,313.6382433253025
95.77674418604647,314.8124269773558,-0.8281075387069111,-0.8281075387069138,313.57587647018005
95.16279069767438,314.0881007344838,-0.7320864508560314,-0.7320864508560309,314.5630225430493
94.54883720930229,315.736296144603,0.37225821050879254,0.37225821050879093,311.8395742376014
93.9348837209302,312.8641145767223,-0.28312351116419343,-0.28312351116419227,316.3833368072214
93.32093023255811,313.0010993368184,0.6694494924007702,0.6694494924007696,315.74008726705347
92.70697674418602,310.75514071376045,0.49662655832529806,0.49662655832529834,317.8648581517776
92.09302325581393,312.56383999383803,-1.0424253745821526,-1.0424253745821532,317.0989528393744
91.47906976744184,313.65139502081655,-0.10540494865918223,-0.10540494865918282,313.3909424863931
90.86511627906975,313.4894159783831,-1.0756284616051874,-1.0756284616051868,318.65977399191985
90.25116279069766,313.0619197350848,0.4969811517293945,0.4969811517293962,315.65908104756227
89.63720930232557,314.9723653084366,0.3453001765712227,0.3453001765712229,320.04446651989565
89.02325581395348,311.11025575966505,-0.3608061305789301,-0.36080613057892996,316.8491379789654
88.4093023255814,311.82538007109116,0.054259199283630904,0.05425919928363228,319.9453456588598
87.7953488372093,311.7773075762739,0.5211435136123931,0.5211435136123942,316.54608606332914
87.18139534883721,312.1681715450847,-0.5123095876777667,-0.5123095876777666,315.5186925089717
86.56744186046512,310.2887569234307,0.34237148124810474,0.3423714812481015,318.98594313719497
85.95348837209303,312.82870798903997,-0.4003046357135598,-0.4003046357135595,317.63653293532604
85.33953488372083,313.6928356974595,-0.07319311625425663,-0.07319311625426046,316.46340723680277
84.72558139534874,311.8523184770999,-1.0556273323172758,-1.0556273323172738,316.8852789300184
84.11162790697665,312.395164542113,0.08382576392977167,0.08382576392977062,315.0819067867716
83.49767441860456,314.0325779298907,-0.7598970147297667,-0.7598970147297666,315.31646576768
82.88372093023247,313.1968567945152,-0.8473641432257648,-0.8473641432257637,314.302553335969
82.26976744186038,313.71837713129554,-0.9267533247223081,-0.9267533247223076,316.06650455634013
81.65581395348829,314.10651746031584,0.2602703329642013,0.2602703329642029,316.14149578567606
81.0418604651162,313.93656900434115,-0.21357578743273173,-0.2135757874327319,314.74400207194526
80.42790697674411,314.50382104672394,-0.5889792172221812,-0.5889792172221812,315.2680935761825
79.81395348837202,311.97323949856997,-1.3962029915733343,-1.3962029915733332,316.3350191147098
79.19999999999993,313.21226373881416,-0.6053176026583407,-0.6053176026583403,315.95957340862424
78.58604651162784,313.9574413950848,-0.12090753553269218,-0.12090753553269111,313.5500001475282
77.97209302325575,313.7048608757279,-0.5746484172694695,-0.5746484172694684,316.0453393531371
77.35813953488366,313.7058434255395,-0.16228257735366586,-0.16228257735366733,313.48337469214607
76.74418604651157,313.7679797706175,-1.0730771473005898,-1.0730771473005902,313.90547071889654
76.13023255813948,314.0403159700831,-0.31743710133706465,-0.31743710133706493,313.37254310449015
75.51627906976739,313.7967071136921,-0.9922155236569468,-0.9922155236569462,312.82350800857023
74.9023255813953,315.2312368523976,-0.7976559377608574,-0.7976559377608581,314.3099052258214
74.28837209302321,313.9353243799821,-0.3981239483588115,-0.39812394835881215,315.23334101208565
73.67441860465112,313.6036587700398,0.5179146899476257,0.517914689947623,317.2552333468631
73.06046511627903,313.9292565665209,-1.7099315040756653,-1.7099315040756653,314.40386450286286
72.44651162790694,313.53439508195316,0.54622970288874,0.546229702888739,315.1779392465955
71.83255813953485,313.6961396311273,-0.9308358600373946,-0.9308358600373928,316.19451264945565
71.21860465116276,313.4817940879431,-0.6157170955022107,-0.6157170955022085,312.732992797774
70.60465116279067,313.70255598678483,-1.0040443500102476,-1.0040443500102458,316.8651667056297
69.99069767441858,313.43983105586284,-0.5463798995622399,-0.5463798995622409,315.2484568813671
69.3767441860465,314.6374418599976,-0.4846430780152133,-0.4846430780152133,313.3646793223921
68.7627906976744,314.47330222465547,-0.44221930938648607,-0.4422193093864841,312.8513508116039
68.14883720930231,313.32761324744996,-0.24994280213761808,-0.2499428021376173,315.43024860985804
67.53488372093022,313.68019609659115,-0.09957992706590123,-0.09957992706590042,316.3190632361568
66.92093023255813,314.1745537578708,-0.41593887521147094,-0.41593887521147155,315.0314863247687
66.30697674418604,314.0271548043437,-0.5873602030775918,-0.5873602030775928,314.15207212440106
65.69302325581396,314.0873107896241,-0.2384554818683739,-0.23845548186837393,313.0726722886736
65.07906976744187,314.77622212951496,-1.0227579167809608,-1.0227579167809608,315.3608914569301
64.46511627906978,311.8559354726968,-0.6636299430389824,-0.6636299430389833,315.00311140144896
63.851162790697686,313.47451909428264,0.3980650414797981,0.3980650414797988,315.3371280378824
63.23720930232548,313.8706099845062,-0.013755746128004346,-0.013755746128004676,315.1292530257019
62.62325581395339,314.27225941726425,-1.2158717505532486,-1.2158717505532495,313.75377479942347
62.0093023255813,314.5231874167861,-0.17483001197477774,-0.17483001197477785,315.38098674740996
61.39534883720921,312.8210411121723,-0.5191730204476049,-0.519173020447603,314.91530655683624
60.78139534883712,314.0809855057841,-1.066037870897715,-1.066037870897714,314.2926486337417
60.16744186046503,313.8223408069951,-0.609660082100813,-0.6096600821008132,315.28626723355234
59.55348837209294,312.49279613344135,-0.6948395158037353,-0.6948395158037357,317.285890747232
58.93953488372085,313.114941964126,-1.0771530273903243,-1.0771530273903245,315.90076456822663
58.32558139534876,313.2626944597085,-0.9887523367195672,-0.9887523367195682,314.4052063183079
57.71162790697667,313.2274956769996,0.39341880704395854,0.3934188070439574,315.2629660035909
57.09767441860458,314.17684206938844,0.6079929446286466,0.6079929446286466,314.07638211265817
56.483720930232494,313.57535198642074,0.28944927963696393,0.28944927963696354,314.57431654846977
55.869767441860404,311.81083300875736,0.7537523779685591,0.7537523779685589,314.7371033817416
55.255813953488314,313.62752860806887,0.9800778111221968,0.9800778111221988,316.147413798362
54.641860465116224,314.9953343127359,0.42677508587310425,0.4267750858731053,316.7987660222988
54.027906976744134,313.8121213564048,-0.4926652307470848,-0.49266523074708524,315.7653665340553
53.413953488372044,314.39531719311054,-0.46147777496609094,-0.46147777496609177,315.2158671869592
52.799999999999955,313.1190031243869,-0.8752516683669983,-0.8752516683669986,313.9196501709779
52.186046511627865,314.5370277938357,-1.013660442295703,-1.0136604422957032,315.30492101988165
51.572093023255775,311.74869411730657,-1.3124322766231715,-1.3124322766231697,317.31109751950714
50.958139534883685,314.1463201307836,0.13005054648837014,0.1300505464883722,316.1411978782401
50.344186046511595,313.689169720356,-0.3245729857832425,-0.3245729857832438,316.4937929682931
49.730232558139505,312.3544716748582,-1.6389282290885816,-1.6389282290885816,317.0350952104192
49.116279069767415,313.4813189495618,0.013001696508661136,0.013001696508660314,313.8653385300197
48.502325581395326,314.32069376898124,-0.9406435945838677,-0.9406435945838675,314.9139157163425
47.888372093023236,314.27608612083316,-0.7068925826859034,-0.7068925826859044,314.79488021202206
47.274418604651146,314.1031791467849,-0.2523109459333269,-0.2523109459333292,315.0068974899978
46.660465116279056,314.3175899858814,-0.5622643130236221,-0.5622643130236256,314.61042890332953
46.046511627906966,312.6238462650041,-2.4558690808358716,-2.4558690808358707,314.421982962552
45.432558139534876,314.1151834341121,-0.40167014162091746,-0.4016701416209169,314.69622295270335
44.81860465116279,313.07314292387036,-1.6801189337321978,-1.6801189337321982,313.09466782346385
44.2046511627907,313.3205536621339,-1.6331056286789678,-1.6331056286789711,315.4910791583279
43.59069767441861,313.60337072304645,-0.8158436493466158,-0.8158436493466154,315.92685971152537
42.97674418604652,313.65367734319335,-1.7906372777832813,-1.7906372777832822,313.99921233775586
42.36279069767443,314.1321148249041,-0.7437634907427794,-0.7437634907427786,313.99923966562926
41.74883720930222,313.8536654407521,-0.6889260508612479,-0.688926050861247,316.24317914420544
41.134883720930134,313.83382716822223,-0.8821038710977269,-0.8821038710977263,314.31610869458837
40.520930232558044,313.6638546895437,-0.369503017251002,-0.36950301725100193,315.9102851761419
39.906976744185954,313.01803652136584,-0.13949583611042385,-0.13949583611042476,315.3626267535662
39.293023255813864,312.1955952030436,-0.7158102245610385,-0.7158102245610378,314.9768672783843
38.679069767441774,312.1961441227659,-0.7893674496162537,-0.7893674496162534,316.9292591053762
38.065116279069684,314.2715081687683,-0.6334399872826751,-0.6334399872826747,314.1656294760193
37.451162790697595,314.9652755729314,-0.43587660521147104,-0.43587660521147154,313.3741335842856
36.837209302325505,313.73817984153266,-0.8136186048146443,-0.8136186048146437,315.4335410395224
36.223255813953415,313.4685195078346,-0.7183004362924189,-0.7183004362924162,314.96403935528554
35.609302325581325,314.8959669751802,-1.1712717644300974,-1.171271764430099,315.45844596050614
34.995348837209235,313.0382723299457,-0.6716028989246245,-0.671602898924624,316.9909103146937
34.381395348837145,312.9512120388573,-0.6515845270595034,-0.6515845270595044,315.61090943436744
33.767441860465055,313.59732205628717,-0.6272865998769919,-0.62728659987699,313.99755033295526
33.153488372092966,313.6277320984348,-0.2704150973352063,-0.27041509733520575,314.8038286576126
32.539534883720876,312.3321877775023,-0.6743788903888739,-0.6743788903888732,315.4486294613673
31.925581395348786,313.6785785978962,-0.959698660918004,-0.9596986609180043,316.62492188953956
31.311627906976696,312.13108440624296,-1.1351434985350548,-1.1351434985350544,316.33915497205766
30.697674418604606,314.1418558262618,1.0179630243156244,1.0179630243156281,315.07232333237096
30.083720930232516,313.6756914825467,-0.44683208049943673,-0.44683208049943574,314.70698812278636
29.469767441860427,312.09772732380026,-1.1293807210586317,-1.1293807210586313,320.1507355919304
28.855813953488337,313.6739004040715,-1.2419209498479595,-1.2419209498479609,315.58266690927746
28.241860465116247,315.3272519670391,-1.4214087735501626,-1.4214087735501622,313.5503967689926
27.627906976744157,313.5525545509128,-0.20946690110630908,-0.20946690110630903,314.10959748087754
27.013953488372067,312.22045442804915,-1.255946557177063,-1.2559465571770625,315.585671525468
26.399999999999977,313.5833715892565,-1.4068376291651967,-1.406837629165196,315.7036220934506
25.786046511627887,313.2876672250563,-0.8607792910261903,-0.8607792910261923,314.4941071540399
25.172093023255798,313.78630498594026,-0.9374164161480961,-0.937416416148097,316.3442926180573
24.558139534883708,313.2280401540605,-1.0395395907427583,-1.0395395907427585,315.843331934388
23.944186046511618,313.61692800267485,-1.9601833402279063,-1.9601833402279059,316.5710032082185
23.330232558139528,313.7466047191726,0.025478311929646325,0.02547831192964803,314.10371300130083
22.716279069767438,312.71905137477415,-0.919004852438625,-0.9190048524386255,315.6073130706966
22.10232558139535,313.70555112314156,-0.6197748276285809,-0.6197748276285815,315.72426744033567
21.48837209302326,313.2907721269849,-0.3412376786715625,-0.3412376786715618,315.9058751334047
20.87441860465117,313.57732115551704,-0.416291025705231,-0.4162910257052324,316.87497237845326
20.260465116278965,313.87727163480116,-0.030960062689988403,-0.030960062689989753,317.71930698466434
19.646511627906875,314.68663577981727,-0.7558511793959062,-0.7558511793959065,315.61188730992166
19.032558139534785,313.84330951570814,-0.45884559213742515,-0.4588455921374247,315.5739249769615
18.418604651162696,313.940932214421,0.08414565216636608,0.08414565216636624,316.0516277085336
17.804651162790606,312.40160633880726,-0.8304820485149226,-0.830482048514923,315.1732465042705
17.190697674418516,314.0727708529012,0.08188819988635354,0.08188819988635636,316.23074971260195
16.576744186046426,316.2345049534552,0.2180704013146315,0.21807040131463243,312.10070235110953
15.962790697674336,314.7697612165059,0.822587864933893,0.822587864933896,314.14516361139886
15.348837209302246,314.068030219834,-0.20874376231864347,-0.20874376231864228,314.52269838973734
14.734883720930156,315.7691248319841,0.12388620412483552,0.12388620412483403,311.1548981879894
14.120930232558067,314.86459392332574,-0.8254662984654629,-0.8254662984654634,315.05161948449586
13.506976744185977,312.523224609084,-0.8598107722477145,-0.8598107722477152,319.39463007016275
12.893023255813887,312.69738386357614,-0.7643433190241952,-0.7643433190241934,316.453360408181
12.279069767441797,315.2959694235228,-0.005104794362699553,-0.005104794362700345,314.99222836420574
11.665116279069707,313.1661296825266,-0.039366298182695464,-0.039366298182696366,316.83450399957263
11.051162790697617,313.3160644602977,-0.14926447031316042,-0.1492644703131614,316.4876047472886
10.437209302325527,315.0277940615081,-0.7363004698345733,-0.736300469834573,316.5705875999176
9.823255813953438,313.2117588585192,-0.2873705939911261,-0.287370593991127,317.16356455505183
9.209302325581348,312.5041160160349,0.6573507100550239,0.6573507100550225,316.1242549765697
8.595348837209258,313.50423780625437,-0.6875574339675573,-0.6875574339675564,315.44119284953
7.981395348837168,315.38731235433636,0.45387590264414945,0.453875902644149,315.0353317270769
7.367441860465078,313.59150091562066,-0.15302776721633074,-0.15302776721632935,314.9023462192937
6.753488372092988,312.0296733234618,0.2058627497037733,0.20586274970377208,318.77705280500095
6.1395348837208985,313.89230407744935,0.8672971334742136,0.8672971334742144,316.16481150662565
5.525581395348809,312.7830143691449,0.8102137469231534,0.8102137469231534,316.93710825428667
4.911627906976719,314.38065280501615,0.306372075610344,0.306372075610346,316.13932445061135
4.297674418604629,314.37299910127217,-0.991202524295629,-0.9912025242956277,316.123961504502
3.683720930232539,314.47055968353635,-0.7798481308240377,-0.7798481308240384,315.5579345082421
3.0697674418604493,314.4250408891305,-0.26752693152823437,-0.2675269315282352,315.0924341214501
2.4558139534883594,312.8406613321517,0.009873704965311278,0.009873704965312289,315.4969730178611
1.8418604651162696,314.26785440050025,-1.592185214096789,-1.5921852140967885,315.32565803774924
1.2279069767441797,314.716823994868,-0.8112047811479118,-0.8112047811479128,315.20849536446855
0.6139534883720899,315.00993952068785,-0.8419500396766315,-0.841950039676632,314.1231742584944
0.0,313.7570464855444,-1.5615412289605741,-1.561541228960574,314.3582806810925
