z in mm,sigma xx in mm2,sigma xy in mm2,ysigma yx in mm2,sigma yy in mm2
0.0,107.58178796453807,14.300462883413033,14.30046288341303,124.80025234109449
0.6489675516224189,106.85515529908619,14.93857242489668,14.93857242489668,123.8991139070684
1.2979351032448379,107.24366039086019,14.569548174929523,14.569548174929524,125.62494015362128
1.9469026548672568,108.29516019977899,15.127304203603416,15.127304203603416,125.7478420917928
2.5958702064896757,106.70412624926456,15.105232805873555,15.10523280587356,125.74671975416713
3.2448377581120944,106.77679038909233,14.423726398753198,14.4237263987532,124.5836566374
3.8938053097345136,108.6676691742758,14.290610907955251,14.290610907955248,124.58615424066119
4.542772861356933,107.25300790066638,15.42336440101552,15.42336440101552,124.17466559078728
5.191740412979351,105.84683311603855,14.221879945750327,14.221879945750322,122.68867379697255
5.84070796460177,108.2343720003785,15.185399684044874,15.185399684044874,125.10740072454657
6.489675516224189,106.75566696305808,14.446188072344778,14.446188072344775,124.10654175726374
7.138643067846608,106.334465639553,14.711123140027327,14.711123140027327,124.45561807342497
7.787610619469027,106.94057016125024,14.677793114966933,14.677793114966933,124.10361368719872
8.436578171091446,108.04717125653202,14.538860443701596,14.538860443701596,125.80436592889933
9.085545722713865,107.69263621588382,15.848832509282953,15.848832509282953,124.84153488381898
9.734513274336283,109.7679751742723,15.288681072496345,15.288681072496345,124.50095189411263
10.383480825958703,108.47869664828993,14.947503994385023,14.94750399438502,125.45075121964126
11.032448377581122,108.39757292513292,14.85094473335009,14.850944733350095,126.55253169009514
11.68141592920354,107.9509213359462,14.773776890622942,14.773776890622942,125.27810442545645
12.33038348082596,109.00595916514095,15.44190092345304,15.441900923453042,125.73716693475465
12.979351032448378,109.50939854381987,15.069851280557717,15.069851280557714,125.6323368357297
13.628318584070797,109.34366207613179,15.375184425472417,15.375184425472417,126.00793956327124
14.277286135693217,107.42473707294788,15.582800595180812,15.582800595180808,128.31503557532375
14.926253687315635,107.39379300828628,15.277575316882409,15.277575316882412,128.20481765492787
15.575221238938054,110.18957200084672,15.96506324431408,15.965063244314075,128.002702209228
16.224188790560472,108.1464159214607,15.631831638017,15.631831638017,127.25330395529218
16.87315634218289,108.41570493360895,15.064757484926261,15.064757484926256,126.12153993414016
17.52212389380531,108.82655246348155,15.294802132574782,15.294802132574786,128.4458435503778
18.17109144542773,108.87013464519354,14.980961658901828,14.980961658901832,128.64248450926883
18.82005899705015,107.43555004600663,15.480196067676703,15.480196067676705,128.37457355896936
19.469026548672566,108.51222120702843,15.67784578897795,15.67784578897795,128.31627188497743
20.117994100294986,107.252379757677,15.006254415984262,15.006254415984262,127.34574941760431
20.766961651917406,107.98533983155218,15.041572240374204,15.041572240374204,125.81596962148616
21.415929203539825,108.94800217321627,15.304375543522381,15.304375543522381,127.00361712451019
22.064896755162245,108.42552193125171,14.722746263295313,14.722746263295315,126.66957452494304
22.71386430678466,107.03036519119584,15.340072821387839,15.340072821387839,127.84379131900316
23.36283185840708,106.92455091292247,15.673778056800572,15.673778056800574,129.34710668805508
24.0117994100295,108.75444002217527,16.47083884830098,16.47083884830098,129.5036389481342
24.66076696165192,109.60395376986924,16.447565125629556,16.447565125629556,131.50181787789617
25.30973451327434,108.98958458072083,15.882186087098075,15.882186087098079,127.58946272877193
25.958702064896755,109.24853747106306,15.963884840205882,15.963884840205884,128.6230752965476
26.607669616519175,108.54759849912334,16.671529001871985,16.67152900187199,129.91439093689468
27.256637168141594,108.8104481062152,15.937382878760664,15.937382878760664,129.94059762071828
27.905604719764014,109.87061498822374,16.409699589679192,16.40969958967919,130.97219695253466
28.554572271386434,109.40291261796087,16.50833909968689,16.508339099686882,129.91913961309623
29.203539823008853,110.25047393448392,16.074519146591374,16.074519146591374,129.27372098334678
29.85250737463127,110.4926464136293,16.4965995826474,16.496599582647406,129.5259774270852
30.50147492625369,110.80407403941427,16.111713096793228,16.111713096793228,131.20982707788502
31.15044247787611,108.93520430883686,16.175917159393975,16.17591715939398,132.66331015236537
31.799410029498528,109.55154523459225,16.14952181298721,16.14952181298721,131.00147468498812
32.448377581120944,110.30129315659268,16.451604644926913,16.451604644926913,131.54745905574165
33.097345132743364,111.08809881912586,16.633580623356817,16.63358062335682,131.61785674789644
33.74631268436578,111.34850905576678,16.346860044160834,16.346860044160838,132.8931115279716
34.3952802359882,112.42287347166824,17.011656872064094,17.011656872064094,130.8543233250227
35.04424778761062,110.55772879710003,17.555032249676202,17.555032249676202,133.9106345391053
35.69321533923304,110.67673140129793,17.284637202857862,17.284637202857866,131.93410102018444
36.34218289085546,110.89094097833335,17.4125278619889,17.4125278619889,132.38363214691879
36.99115044247788,110.56457919192509,16.74594176873382,16.745941768733818,132.8852171318995
37.6401179941003,111.39256812883103,16.43028928440234,16.430289284402342,132.47730573341326
38.28908554572271,111.31798053720856,17.584445333982302,17.584445333982302,133.0058624442357
38.93805309734513,111.84730718535897,17.58688033671133,17.586880336711328,134.7572676671476
39.58702064896755,111.8086109282648,17.4833428150144,17.4833428150144,133.49756047640483
40.23598820058997,110.73439825209385,17.725205027017953,17.725205027017953,135.0789691516559
40.88495575221239,110.40592192341988,17.6197534421367,17.6197534421367,135.94549251746756
41.53392330383481,110.46607935036963,17.840641717226756,17.840641717226756,134.3903962234316
42.18289085545723,108.39565964702253,16.955236949403428,16.955236949403428,133.52530565020635
42.83185840707965,111.32562430598637,18.0873058304039,18.0873058304039,134.73755595936606
43.48082595870207,110.72652915323785,17.519946099050284,17.519946099050284,136.34283600041033
44.12979351032449,113.80834088381862,18.143630967901842,18.14363096790184,135.4500586187059
44.77876106194691,111.47688814689062,17.46358423023389,17.463584230233888,134.87211075817282
45.42772861356932,111.53070348700038,17.320667473774996,17.320667473774993,132.87470748630378
46.07669616519174,111.18712676114322,17.32942052009575,17.32942052009575,134.27134698796584
46.72566371681416,111.67075728299805,18.57902953161162,18.57902953161162,137.22939118959985
47.37463126843658,112.16526379472108,18.551118452755695,18.551118452755695,138.72988262398954
48.023598820059,111.02238810166328,18.059518237521104,18.0595182375211,137.347797037842
48.67256637168142,114.93692812346643,18.197654734315357,18.197654734315357,139.05554790225767
49.32153392330384,112.26211356084251,17.978804237048724,17.978804237048724,137.08225305527117
49.97050147492626,114.60188873763015,18.49349840085586,18.49349840085586,137.7334072156626
50.61946902654868,112.97224079464127,17.39154954410164,17.391549544101633,137.47217778253614
51.2684365781711,113.51657117824257,18.86943349173553,18.86943349173554,139.22259061783382
51.91740412979351,111.4925244820977,18.782841723535586,18.782841723535586,140.9213927080474
52.56637168141593,110.54262831730878,18.763060900996916,18.763060900996916,139.17054079059247
53.21533923303835,112.3918642767704,17.989153588032337,17.989153588032337,136.7629724083936
53.86430678466077,111.45643600775061,19.358811533787943,19.35881153378795,137.44266436172762
54.51327433628319,113.46256668460667,18.08492944681475,18.08492944681475,138.52535629246327
55.16224188790561,112.24668719661358,18.528377095729073,18.528377095729073,139.653773231928
55.81120943952803,112.76964607668943,18.74708380482326,18.74708380482326,138.70824018112864
56.46017699115045,111.19314898424742,18.69406818152037,18.69406818152037,139.21780164723793
57.10914454277287,109.55865306927187,17.952096029872834,17.95209602987284,137.46555003968118
57.75811209439529,110.00543473065518,18.362659030441765,18.362659030441765,138.8886344256012
58.407079646017706,110.21766043248859,18.962100970217076,18.962100970217076,139.68783983338545
59.05604719764012,108.58581867250594,17.70118766542619,17.70118766542619,137.85715831145282
59.70501474926254,110.11771412485788,18.389160929061273,18.389160929061273,138.61878661389946
60.35398230088496,110.67528580338528,18.679197021009614,18.679197021009614,139.27625207201845
61.00294985250738,109.99749069463824,18.94602392633979,18.946023926339787,140.92320941527223
61.6519174041298,111.2009208727012,19.607952208463228,19.607952208463228,140.02768409393076
62.30088495575222,111.15431677470251,19.283158298740542,19.283158298740542,141.26122394621086
62.949852507374636,110.90270287611334,19.020318645999037,19.020318645999037,140.89128849317618
63.598820058997056,110.8288465392933,19.280308292287835,19.28030829228784,139.5181371502534
64.24778761061947,109.22586900294975,19.29209988253875,19.292099882538757,140.86466253120113
64.89675516224189,110.4459709313725,19.37480249605822,19.37480249605822,140.75896456865846
65.54572271386431,109.29483312985444,19.32939001114067,19.32939001114067,140.76920886199565
66.19469026548673,110.29003332621035,19.532682057027422,19.532682057027422,142.94416951657138
66.84365781710915,111.72855242181959,18.860830666817797,18.860830666817797,142.63598544977037
67.49262536873157,111.22612993904875,19.0694103814773,19.0694103814773,141.4403976381074
68.14159292035399,109.9296781464493,18.656990169735487,18.65699016973549,142.31363153656284
68.7905604719764,109.87837788133075,18.379470694488106,18.379470694488106,142.42431819517884
69.43952802359883,110.1674770771757,19.387160694803775,19.387160694803764,143.44969126059138
70.08849557522124,111.003377623735,19.456842554865545,19.456842554865545,146.90978360590415
70.73746312684366,110.25544722924698,18.918507359316955,18.918507359316955,144.40123346048856
71.38643067846608,111.80766534773394,20.139824528652486,20.139824528652486,146.65847901176608
72.0353982300885,112.1337278560622,20.32698073241589,20.32698073241589,145.41773837332872
72.68436578171092,110.48082681836678,19.689413471851427,19.689413471851434,145.70299099579609
73.33333333333334,110.52100574026835,19.586869710180537,19.586869710180533,144.1431419760425
73.98230088495576,110.99210957700912,19.712553992485958,19.712553992485958,143.5109628120486
74.63126843657818,111.08728861297122,19.47908643881978,19.47908643881978,143.7320402653445
75.2802359882006,110.34758182676102,19.837654314282023,19.83765431428203,146.06006651892994
75.92920353982302,109.63685603512094,19.474705659584043,19.474705659584043,144.05943458546787
76.57817109144543,108.3838817840958,19.78172561578437,19.78172561578437,144.27560701970816
77.22713864306785,107.72016995827428,19.42918154156885,19.429181541568845,144.05587547374913
77.87610619469027,110.47140136159504,19.853468636108037,19.853468636108037,145.69108468087333
78.52507374631269,110.20811988038365,19.41185514940172,19.411855149401717,146.33580802037957
79.1740412979351,108.82666856532435,20.061252679119054,20.061252679119058,145.57006375835581
79.82300884955752,109.99381837462812,20.789347850734448,20.789347850734448,147.79329054419236
80.47197640117994,110.29125710397608,20.893044112397853,20.893044112397856,147.4455528175425
81.12094395280236,109.8931302102613,20.558581846865362,20.558581846865355,144.87410439173556
81.76991150442478,108.70871781521552,20.11817845660254,20.11817845660254,147.01862902777623
82.4188790560472,110.22106646024214,20.402558239226053,20.402558239226053,147.34810248037212
83.06784660766962,110.95384627556055,20.166218974466226,20.166218974466222,147.33900532163955
83.71681415929204,110.87282292088202,21.03307878289764,21.03307878289764,147.3784935821906
84.36578171091446,111.23983034602938,21.25750784858444,21.257507848584435,147.89010097607482
85.01474926253688,108.60857803873874,20.73302929336079,20.733029293360783,149.32676761912398
85.6637168141593,108.07167421746296,20.931597527866703,20.931597527866703,150.20050772833133
86.31268436578172,109.41638044991497,21.181118108153765,21.181118108153754,149.3595009415973
86.96165191740414,110.06581489910512,20.26114174420271,20.26114174420271,150.61217692886603
87.61061946902656,107.76349452582416,20.46706498705953,20.46706498705953,150.70245167514906
88.25958702064898,108.73766012845584,20.91376076469245,20.913760764692455,151.07817142782815
88.9085545722714,108.95631329614933,21.466968163093142,21.466968163093142,149.7900772810906
89.55752212389382,110.11921802804882,20.977574129361205,20.977574129361205,149.8074403330484
90.20648967551622,109.85699798950768,21.25917444100487,21.25917444100487,149.35753874750844
90.85545722713864,109.40001377758949,20.942397401382205,20.942397401382205,149.9448998558221
91.50442477876106,109.69745410704962,20.435231855483966,20.435231855483977,149.86168214478997
92.15339233038348,108.5619166550242,21.419020783924815,21.419020783924815,151.82325722361318
92.8023598820059,109.0074172725697,21.595676812259303,21.595676812259303,150.46767292584326
93.45132743362832,109.47056148267232,21.623841151360452,21.623841151360452,151.92382387648743
94.10029498525074,109.77631604381708,21.464029638412278,21.46402963841228,152.61572850843487
94.74926253687316,108.26146417465768,20.696882628825502,20.696882628825502,149.2775522936864
95.39823008849558,108.43826772010209,21.295603150852138,21.295603150852138,152.12121486448015
96.047197640118,108.39173841180383,21.071444138673826,21.07144413867383,152.58969034086948
96.69616519174042,110.6080065491355,21.24396879463722,21.24396879463722,151.04005516661599
97.34513274336284,106.71232288611415,21.675891074656676,21.67589107465668,152.11991265968425
97.99410029498526,104.65235779740262,20.96374483733678,20.96374483733678,151.64552925315488
98.64306784660768,106.36698353145802,21.21950422680906,21.219504226809057,151.6517769143359
99.2920353982301,106.21970298634815,21.780504377232692,21.780504377232692,155.61320509016508
99.94100294985252,106.50257611408288,22.007889716972542,22.00788971697255,154.5945517954364
100.58997050147494,106.2120669600802,21.89237437918817,21.89237437918817,153.75783325218643
101.23893805309736,105.36401982815627,20.991484212275385,20.991484212275388,152.64988381688678
101.88790560471978,106.96612936786457,22.45826443809636,22.458264438096354,155.3346252835275
102.5368731563422,106.09631129425094,21.391156259471305,21.391156259471302,152.13676303858435
103.18584070796462,106.35896619527975,21.704693485090687,21.704693485090687,154.50926143437977
103.83480825958702,106.97404942075659,21.550589698757282,21.55058969875728,154.8245699158083
104.48377581120944,105.81015068747223,21.600035802638523,21.600035802638523,155.2885070457958
105.13274336283186,106.0483726825414,22.448734625123553,22.448734625123553,156.02791703202774
105.78171091445428,107.72577938493042,22.163831472803693,22.163831472803697,155.7596138111227
106.4306784660767,106.77114111077407,21.736499460785875,21.736499460785875,156.1183411444697
107.07964601769912,106.84523367351979,22.13568735969067,22.13568735969067,157.3421505396225
107.72861356932154,108.28616502880794,22.196918791117174,22.196918791117174,157.9348775200513
108.37758112094396,106.62759759356102,21.88572583975429,21.885725839754294,158.2281044982871
109.02654867256638,106.80741662704924,21.74652159180264,21.746521591802647,158.22218542744469
109.6755162241888,106.6824712605626,22.83098168303341,22.83098168303342,157.61506256908285
110.32448377581122,107.06123476820082,22.834105217570862,22.834105217570862,157.8952608128971
110.97345132743364,108.07125639266322,22.409311044780615,22.409311044780623,157.87446811230825
111.62241887905606,106.5660355503451,22.082024117388592,22.082024117388592,157.68968386245592
112.27138643067848,109.60354768896012,22.329392202548103,22.329392202548103,162.382048698661
112.9203539823009,107.65186420891492,21.99780237882898,21.997802378828982,159.58531858630803
113.56932153392331,107.3230831816541,22.800021964015393,22.800021964015393,161.00433535262914
114.21828908554573,106.73731269107277,21.987553298618145,21.98755329861815,157.33093550729586
114.86725663716815,107.09457578298445,23.14322494413246,23.14322494413246,160.28782315352927
115.51622418879057,107.15466656251499,23.078647069885736,23.078647069885726,159.99324968775326
116.165191740413,105.02890945201257,22.254400701420654,22.25440070142065,157.28702027891887
116.81415929203541,106.19848925848686,22.617395171661855,22.617395171661855,162.31019604016726
117.46312684365783,105.66935033157515,22.649200441586625,22.64920044158662,159.24442233051133
118.11209439528024,106.01337373031323,23.046970330065967,23.046970330065967,160.80075477286258
118.76106194690266,105.58279553868358,22.792217888379348,22.792217888379344,161.77183934025015
119.41002949852508,105.68261897526985,22.460016546541617,22.460016546541617,158.3006808827444
120.0589970501475,106.12727611773226,23.499574095919726,23.499574095919723,160.64380357980093
120.70796460176992,106.21057865388683,22.610073604193488,22.610073604193488,162.16410691869436
121.35693215339234,106.82020501909592,23.877188042063484,23.877188042063484,164.05057684620724
122.00589970501476,108.24782282918,23.01890956377834,23.018909563778333,166.5222037041645
122.65486725663717,106.95640570776678,23.57287986376588,23.572879863765884,166.27896014488059
123.3038348082596,106.80006847104957,23.134603051783166,23.13460305178317,164.27325290310904
123.95280235988201,110.51864662106814,23.323156703042667,23.323156703042667,165.6323875885059
124.60176991150443,107.39371512196983,23.33994336082293,23.33994336082293,165.35109563590206
125.25073746312685,105.20446155035303,23.37717336667866,23.37717336667867,166.17650258116112
125.89970501474927,104.8243316219041,23.63359226132756,23.633592261327568,164.26598269472993
126.54867256637169,104.68770997303733,23.480527609528036,23.480527609528036,164.90282019247408
127.19764011799411,106.42905851103946,23.96412090309342,23.96412090309342,167.2771833283071
127.84660766961653,107.60612878714961,23.332713442802948,23.332713442802948,164.78611953181618
128.49557522123894,107.98966667076722,23.18107765094254,23.18107765094254,166.50592419078455
129.14454277286137,106.2840824807996,23.100768759625943,23.100768759625943,167.13212106020342
129.79351032448378,106.74016352658585,23.274291189826187,23.274291189826187,166.65081450053802
130.4424778761062,105.64985683004896,23.727591031893542,23.727591031893542,167.92075484550807
131.09144542772862,107.3221154488518,23.60520507187659,23.605205071876586,166.98434721614169
131.74041297935105,106.04792576253674,23.305065219383994,23.305065219383994,166.57309935202414
132.38938053097345,105.67871599138003,23.198662494577473,23.19866249457747,167.42157504866572
133.0383480825959,107.30315062042453,23.68997151632305,23.68997151632305,170.5237889639508
133.6873156342183,104.62658185373462,23.887157933268355,23.887157933268355,168.35861920128394
134.33628318584073,105.21687813204686,23.954613359683197,23.954613359683197,168.97422925230202
134.98525073746313,106.5520034687206,23.956769352751376,23.956769352751376,168.60909953864495
135.63421828908557,107.07773636994956,23.475586138821303,23.4755861388213,172.9689784527467
136.28318584070797,108.1201535558159,23.033369899192156,23.033369899192156,171.30652793254097
136.9321533923304,107.0511962090224,23.860472149268844,23.860472149268844,171.4768026921819
137.5811209439528,106.32780983697847,23.747701534482935,23.747701534482935,171.36485243161079
138.23008849557525,107.46978736606746,24.22896749615271,24.22896749615271,172.38457054375255
138.87905604719765,108.0057207165096,23.653743294293502,23.65374329429351,171.868983243208
139.52802359882006,106.51624544884677,23.49612819572712,23.49612819572712,174.04535103226257
140.1769911504425,105.87873768417633,24.030122100704126,24.030122100704126,174.28385494656015
140.8259587020649,104.25727577450701,24.258578643310827,24.258578643310827,174.65670646694696
141.47492625368733,102.77685203197548,23.4677139403204,23.467713940320394,172.85018382540287
142.12389380530973,104.51544870739008,25.10346056952326,25.103460569523264,176.42234430139422
142.77286135693217,104.08737720909957,25.311593532363336,25.31159353236333,175.353954911328
143.42182890855457,102.70926694981891,24.764788899389487,24.764788899389487,173.83100844693803
144.070796460177,103.61561197246228,24.13106907367132,24.131069073671316,173.27430320342867
144.7197640117994,104.28715680943148,24.6347893045561,24.634789304556104,175.68693885653437
145.36873156342185,105.66600783142714,24.79643187668421,24.796431876684203,177.15446367292475
146.01769911504425,104.90112303179895,23.84370765086583,23.84370765086583,177.41214000290182
146.66666666666669,105.23621513425681,24.864120657585044,24.864120657585044,176.0395558285721
147.3156342182891,103.67376384534,25.053405694224477,25.053405694224484,178.56024044180128
147.96460176991152,103.41869465384386,25.01398215285345,25.01398215285345,176.34323241257482
148.61356932153393,104.68481324992358,24.146171168257087,24.146171168257087,176.63131299977533
149.26253687315636,105.28393387001081,24.013299466072066,24.013299466072063,177.8206143475393
149.91150442477877,105.08507574457543,25.078939936191915,25.078939936191915,175.89704627911055
150.5604719764012,101.94220302970959,25.304329811817507,25.304329811817507,175.62204020998828
151.2094395280236,102.14513486564424,24.485847006883986,24.48584700688399,177.06344034988905
151.85840707964604,101.44242399063816,25.077403324385497,25.077403324385497,177.7642454349998
152.50737463126845,103.18800803976895,24.532640176136862,24.532640176136855,179.1729689834573
153.15634218289085,101.78548974369548,24.75832687160417,24.75832687160417,179.15714852438313
153.8053097345133,103.49029839230397,24.93449600749216,24.93449600749216,176.0712490467771
154.4542772861357,103.24235143673941,25.85851638243075,25.858516382430743,178.34490528612125
155.10324483775813,105.27928909193565,24.645087093343424,24.645087093343424,179.40989156706664
155.75221238938053,102.89495308031245,25.181635516903842,25.181635516903842,179.21951626715338
156.40117994100297,105.526040390943,25.35315329525016,25.35315329525016,181.4570277114151
157.05014749262537,103.19705211792201,25.074053966121397,25.0740539661214,182.77056503718956
157.6991150442478,104.39001174781838,25.198190514999936,25.198190514999936,181.10782408675442
158.3480825958702,104.95541238393602,25.596473370739865,25.596473370739865,179.55047444023955
158.99705014749264,103.70144033771305,24.78814905638816,24.78814905638816,181.28214982928807
159.64601769911505,102.41304066720966,25.115288554711604,25.115288554711604,182.69287849352162
160.29498525073748,103.62612020526429,25.196989285154686,25.196989285154686,180.2565548281766
160.9439528023599,100.69384228180192,25.648664026759974,25.648664026759974,181.02772508170534
161.59292035398232,104.33872344888249,25.6253238011925,25.6253238011925,183.3284987005431
162.24188790560473,105.55103560650771,25.38889782165404,25.38889782165404,183.99272674071867
162.89085545722716,103.22083980768647,25.852286730130928,25.852286730130928,182.0434093266994
163.53982300884957,103.25250607246596,26.35866026850821,26.35866026850821,180.5105764312376
164.188790560472,106.24467678318486,24.90367830672117,24.90367830672117,184.14096034777725
164.8377581120944,103.9247378194742,25.47901747947503,25.47901747947503,182.77746595667668
165.48672566371684,103.84987445176408,25.368346780955633,25.368346780955633,182.71867377576154
166.13569321533924,102.90665781679134,25.338225360288988,25.338225360288988,184.80046694223833
166.78466076696165,104.3542535663481,25.546560452529363,25.546560452529363,185.12936353687002
167.43362831858408,105.613042488434,24.749406415799985,24.749406415799985,186.93907749521858
168.0825958702065,105.0723103698626,24.753471460245173,24.753471460245176,186.74725478773726
168.73156342182892,104.66870636828266,25.291746953415988,25.29174695341598,187.0767810364302
169.38053097345133,103.20851108502298,25.496659037315855,25.49665903731585,184.46321304876153
170.02949852507376,102.10784312555211,25.915950500995358,25.915950500995354,184.3355655225299
170.67846607669617,101.91743368550206,25.243856747629263,25.243856747629263,184.34911773626274
171.3274336283186,101.69091855716944,26.27938278548032,26.27938278548032,184.9782509071408
171.976401179941,102.54576975584195,26.18220829134814,26.18220829134814,185.61984099941083
172.62536873156344,104.04415641155789,26.193892539727393,26.193892539727393,185.66713667114314
173.27433628318585,103.36270387197423,26.089197198023165,26.089197198023165,188.16786795745477
173.92330383480828,104.19304301147231,26.21537441074122,26.215374410741223,187.2478578786873
174.57227138643069,103.04095838344175,25.071186899105715,25.07118689910571,185.6095595049188
175.22123893805312,103.19961445530049,25.95266870993232,25.95266870993232,185.4537931825173
175.87020648967552,100.75758632650269,26.887902316099762,26.887902316099762,186.27311868760324
176.51917404129796,104.3550593252824,25.740313254360853,25.74031325436085,187.36684874751364
177.16814159292036,102.85183914862243,25.439831292318416,25.439831292318413,186.7790381118147
177.8171091445428,102.63055922295376,25.671813830092493,25.671813830092493,189.6373801364633
178.4660766961652,102.58091535621334,25.946986867872766,25.946986867872766,187.2135319721006
179.11504424778764,101.92707322718807,27.318957168994793,27.318957168994782,188.88680858048912
179.76401179941004,102.09663113366612,26.267017995419568,26.26701799541956,188.73002886241824
180.41297935103245,102.60224912127626,26.15560633042977,26.15560633042977,186.5438206938134
181.06194690265488,103.64145453279086,27.06935192274221,27.06935192274221,187.47718215725627
181.7109144542773,101.52321764356401,26.683049766055444,26.683049766055444,187.91634398492127
182.35988200589972,101.89059022345369,26.87213630247067,26.87213630247067,189.3679236889637
183.00884955752213,103.26426597576277,25.51604987523318,25.51604987523318,188.41935841199373
183.65781710914456,102.04558146418115,26.06756162592025,26.06756162592024,188.47449667889592
184.30678466076697,103.85389991923657,25.99628070567549,25.9962807056755,188.93078695203178
184.9557522123894,104.01748048212733,26.641382064136472,26.641382064136472,189.2372601098579
185.6047197640118,104.31764465601316,26.677291972331968,26.677291972331968,191.79916991825124
186.25368731563424,103.06837055897458,26.237731359446553,26.237731359446553,190.00468951296955
186.90265486725664,101.99085396664759,25.823580955256805,25.823580955256805,190.81439865712463
187.55162241887908,103.07364454160636,26.1815269739812,26.181526973981203,189.51751066232202
188.20058997050148,103.69104791691737,26.02555330947034,26.02555330947034,190.14350608665322
188.84955752212392,104.62228898778648,26.643062481022916,26.64306248102292,190.90073233695986
189.49852507374632,102.39447844285267,25.57944152972419,25.579441529724186,192.33958560284182
190.14749262536876,105.51984856566455,25.906026466423555,25.906026466423555,191.52171632600596
190.79646017699116,104.65929200267976,26.06234672070261,26.06234672070261,191.903581093788
191.4454277286136,105.66176116508223,26.820591686886928,26.820591686886928,193.23939024146108
192.094395280236,103.56182175553194,25.777909169040754,25.77790916904075,194.64658431003593
192.74336283185843,104.44754467624115,26.92854084652916,26.928540846529163,194.9004996582814
193.39233038348084,105.47843228442105,26.249642791246696,26.2496427912467,194.2402202054784
194.04129793510324,106.25982171987262,25.184041859604193,25.184041859604193,192.22089354109949
194.69026548672568,105.32984506265142,26.08492833752622,26.08492833752622,193.70612289756167
195.33923303834808,105.37608944629413,25.576532970357338,25.576532970357338,192.84430172478793
195.98820058997052,101.33768722299884,27.070771546321048,27.070771546321048,190.98514662379264
196.63716814159292,101.44958827258527,27.082989185432673,27.082989185432673,192.36413516582797
197.28613569321536,105.00511278470523,26.58493698609202,26.584936986092018,195.96237398578762
197.93510324483776,101.92576808103405,26.52908892931849,26.529088929318487,194.2912140777953
198.5840707964602,104.42334990432678,26.591717605129627,26.591717605129627,193.22333142449943
199.2330383480826,103.25137598542294,27.11390461376166,27.11390461376166,192.8018800054767
199.88200589970504,102.88504437458789,27.24740782317409,27.247407823174086,193.9133126716009
200.53097345132744,105.35246733701429,26.96116583355971,26.96116583355971,195.86218634428462
201.17994100294987,106.72143100142468,26.35075611908965,26.35075611908965,197.7978294252366
201.82890855457228,107.07260583861814,25.895431351606813,25.89543135160681,197.40202235721003
202.4778761061947,101.75100028096674,25.927530622012046,25.92753062201205,196.1939010041643
203.12684365781712,103.49884665154336,26.51023824407422,26.51023824407422,195.0477656575984
203.77581120943955,104.72586143841612,26.832723689006393,26.832723689006393,194.00742253216498
204.42477876106196,102.7324424184204,26.549504350620065,26.549504350620065,196.26501331069446
205.0737463126844,102.73856315723434,25.954721783436966,25.954721783436966,201.61454115859883
205.7227138643068,103.96355564437174,25.521463050074228,25.521463050074228,197.20121651126755
206.37168141592923,126.7776352799853,38.026607145432365,38.02660714543237,195.1476580259782
207.02064896755164,102.86037049386438,26.742250309668215,26.74225030966821,195.32650307388593
207.66961651917404,100.31468406715287,27.318856064219982,27.318856064219982,195.0090236711451
208.31858407079648,101.83516539754478,26.819570428737595,26.819570428737595,195.60861209004725
208.96755162241888,103.52383906821092,26.673750042996904,26.673750042996904,198.15525961020916
209.61651917404131,102.25237873961738,26.498805051876715,26.498805051876715,195.7429732417882
210.26548672566372,103.9464845513443,26.52209793462554,26.522097934625542,197.19504202799396
210.91445427728615,104.6692401552093,27.052042998353205,27.05204299835321,196.2977748726833
211.56342182890856,103.87315555265967,26.8323582688679,26.8323582688679,198.98471382852455
212.212389380531,105.77444287718565,26.89713679537501,26.89713679537501,196.75507465604397
212.8613569321534,104.42258860676799,27.163161954683908,27.163161954683904,198.79788220081673
213.51032448377583,108.59609952340021,25.326238777981416,25.326238777981416,199.9932093450018
214.15929203539824,103.98530006578963,25.808914736716154,25.808914736716154,198.70193757303372
214.80825958702067,103.75454915356801,26.06509544790664,26.065095447906636,196.4713211427151
215.45722713864308,104.90447690071046,25.988231327400282,25.988231327400282,198.5484238646453
216.1061946902655,102.68409454749467,26.249427829453886,26.249427829453882,199.55520087218818
216.75516224188792,102.42146384176814,27.175098310540346,27.175098310540346,197.07381380896447
217.40412979351035,104.47084092988545,26.498559686788752,26.49855968678875,197.66556975572306
218.05309734513276,104.75713520055243,27.068326669041696,27.068326669041696,200.99173981246312
218.7020648967552,107.24140854089387,25.79611820522728,25.796118205227273,199.0873116410003
219.3510324483776,105.10521209137704,26.33293408266448,26.332934082664476,199.1698301597614
220.00000000000003,104.9518087268993,26.546852895332208,26.546852895332208,198.4981532426341
220.64896755162243,104.55945793924478,26.119353131313638,26.11935313131363,201.18930615339053
221.29793510324487,104.88288263605025,26.20816389852637,26.20816389852637,200.46051188108578
221.94690265486727,104.63202984727903,26.652656770298112,26.652656770298115,200.184382556868
222.59587020648968,103.20153673398129,26.553832322320368,26.55383232232037,199.2675029318043
223.2448377581121,104.09252201822284,27.04869586163722,27.04869586163722,200.73408639532605
223.89380530973452,104.44724520808384,26.613207119901194,26.613207119901194,199.2575069540227
224.54277286135695,104.1997616958025,26.286050873443898,26.28605087344389,198.80818023646265
225.19174041297936,107.02735946369005,26.05582381761767,26.055823817617675,200.38591665747384
225.8407079646018,104.57743417944526,26.808859450449464,26.808859450449464,199.3530356478277
226.4896755162242,106.9351499593604,26.41565785915554,26.415657859155534,201.26594920581638
227.13864306784663,104.95852366291703,26.61455538081709,26.614555380817084,198.70104336579521
227.78761061946904,104.47138100439838,26.53097451017133,26.530974510171326,199.3007678265166
228.43657817109147,105.65328211212113,25.21453373568785,25.21453373568785,200.68287383607256
229.08554572271387,105.26239457152643,26.317863545087132,26.317863545087132,199.4053845954514
229.7345132743363,102.58783912005782,27.53137044911458,27.53137044911458,199.03945151833472
230.3834808259587,105.8732196352808,26.323745011352116,26.323745011352123,198.64092027341493
231.03244837758115,104.73771307381547,26.405204843201872,26.405204843201872,200.44246984320154
231.68141592920355,105.8080818695039,26.82407615023301,26.824076150233008,200.15151304572709
232.330383480826,105.70262777127093,26.32414134245881,26.324141342458805,201.54971461286604
232.9793510324484,103.06525230953854,27.79307940327529,27.79307940327529,202.1692575865142
233.62831858407083,106.01233099782144,27.204510783649773,27.204510783649773,201.4934976361906
234.27728613569323,104.70228081103899,27.19658162726598,27.196581627265974,201.79651723151446
234.92625368731566,105.58572132785136,26.398434681140298,26.398434681140298,203.36208471911038
235.57522123893807,105.45398191905305,26.67880692649474,26.67880692649474,201.31403073626524
236.22418879056048,106.63605091123786,26.4844149943211,26.484414994321106,202.80191215825087
236.8731563421829,107.4120360285337,26.810627208911995,26.810627208912,201.9252797936524
237.52212389380531,106.25531589465585,26.348818432184586,26.348818432184583,200.99935973329156
238.17109144542775,105.33528165336557,27.060512432805005,27.060512432805005,200.54068861984285
238.82005899705015,107.4315575481433,26.651338143203315,26.651338143203315,201.088381653781
239.4690265486726,106.21306833381907,25.434211293218482,25.434211293218482,202.0844517844564
240.117994100295,105.485272221091,26.999362430365487,26.9993624303655,201.500041857884
240.76696165191743,104.99276661242598,27.09526849841229,27.09526849841229,202.55753274893527
241.41592920353983,109.38171382258469,27.23852615301156,27.23852615301156,204.31911814877745
242.06489675516227,110.34830031709691,27.249592651634142,27.249592651634135,203.7172759869081
242.71386430678467,106.81975682774646,27.2242094475109,27.22420944751089,200.9731776955476
243.3628318584071,106.59737951014671,26.42541887454824,26.42541887454824,201.68140470703142
244.0117994100295,105.70325636425893,26.370694320556122,26.370694320556122,203.2865920196933
244.66076696165194,107.7917588582469,26.39263411970616,26.39263411970616,205.33741984168262
245.30973451327435,108.32360032567124,26.56210727565585,26.56210727565585,205.40954476120305
245.95870206489678,110.62816251820314,25.85574482158781,25.855744821587816,204.6946112439514
246.6076696165192,109.9405643446041,26.4955303854657,26.4955303854657,202.08220733425304
247.25663716814162,109.95855181826667,26.389706034485048,26.389706034485048,203.46504548487403
247.90560471976403,110.92883368997452,26.677112861080687,26.677112861080683,205.00181709821481
248.55457227138646,110.71643976987048,26.073895990842058,26.07389599084206,205.21216434052894
249.20353982300887,110.73271610765873,27.174313654750787,27.174313654750787,206.67926689722904
249.85250737463127,113.0946126582544,26.225264675846336,26.225264675846333,205.03344189605238
250.5014749262537,111.0390148158613,26.212198489233703,26.212198489233703,206.08238690937537
251.1504424778761,114.11088354647356,26.60396006552711,26.60396006552711,203.33558275379184
251.79941002949855,113.64791731424216,26.02689422055506,26.026894220555057,205.4323900341414
252.44837758112095,108.42864987812125,27.7193226392508,27.7193226392508,204.194352298726
253.09734513274338,105.8783390476337,28.008818700553842,28.008818700553846,204.05120888327593
253.7463126843658,111.19755810434772,27.382107862122037,27.38210786212204,205.34619768641448
254.39528023598822,110.86686216325886,27.516246269783036,27.516246269783036,204.79286689635694
255.04424778761063,111.61095360775863,26.39527713397942,26.39527713397942,202.60254106302463
255.69321533923306,111.75779825320573,27.057535443247332,27.05753544324734,207.39675482058274
256.3421828908555,113.5081427558974,26.507741377830897,26.507741377830897,206.73088124427977
256.9911504424779,111.0952430917744,27.276010422642518,27.276010422642518,205.97656720767043
257.6401179941003,110.66736074090655,27.626314659264164,27.626314659264168,207.2386883887833
258.28908554572274,109.28874300487215,27.91465086904838,27.91465086904838,204.4953397294245
258.9380530973452,113.17324530441593,26.10567891443119,26.105678914431184,207.67523420655417
259.58702064896755,111.50703442273941,26.526378537119683,26.526378537119683,206.23767250089398
260.23598820059,112.18602464931907,26.16090935847794,26.160909358477937,204.98193738806788
260.8849557522124,111.4871756974241,27.08801002386854,27.08801002386854,207.7468699296601
261.53392330383485,112.10094446240001,26.26206238576054,26.26206238576054,206.4619129585737
262.18289085545723,112.43791189615268,26.32331762217461,26.323317622174606,207.7034114180053
262.83185840707966,111.75670178642653,26.280360743223238,26.280360743223238,207.45099161775678
263.4808259587021,112.42962682443255,26.60965605429107,26.609656054291076,206.01180037060772
264.1297935103245,110.91218209218455,26.96705991292844,26.96705991292844,204.73931602227916
264.7787610619469,110.34547838388038,27.4679713114188,27.4679713114188,206.9411718171562
265.42772861356934,111.89376252155748,26.744695683967574,26.744695683967578,207.42244804223012
266.0766961651918,110.20871131366397,26.8954943866516,26.8954943866516,204.5169165918919
266.72566371681415,111.55295410508211,26.72529077507058,26.72529077507058,206.163921100438
267.3746312684366,111.84771544685557,27.348174393725987,27.348174393725987,204.4115336405336
268.023598820059,111.53128582255653,27.052333979008807,27.052333979008807,207.54411746297623
268.67256637168146,112.71385343097813,27.033248050121426,27.033248050121426,202.17608617511377
269.32153392330383,113.0843500597942,26.485605465940075,26.485605465940072,204.63014986253532
269.97050147492627,114.29351594666649,26.162166276249096,26.1621662762491,206.8948094366795
270.6194690265487,113.86517293260313,26.677532885342046,26.677532885342046,203.5706318580096
271.26843657817113,112.23724890147462,26.37605383280779,26.3760538328078,207.32786702126177
271.9174041297935,114.8463376418558,26.02840076226706,26.02840076226706,205.8548273024362
272.56637168141594,112.66229833488293,27.457351971494425,27.45735197149443,203.6695396717256
273.2153392330384,110.61542384754523,26.876453072431097,26.8764530724311,203.83186452121137
273.8643067846608,111.70806940392468,26.930932391680773,26.930932391680763,206.32341265926982
274.5132743362832,111.59379565725568,26.583779401880964,26.583779401880967,203.34903199477628
275.1622418879056,111.69949519667014,27.243311966682683,27.243311966682676,206.08571391299785
275.81120943952806,113.92859284899825,26.23073108399966,26.23073108399966,203.64466191777382
276.4601769911505,113.67517401273422,25.956364037348585,25.956364037348578,204.93095583795048
277.10914454277287,114.41088629294525,26.349426105253343,26.349426105253343,208.4877529020107
277.7581120943953,114.98952726107997,25.536703142388284,25.536703142388287,208.18658633583956
278.40707964601773,115.85876413804253,25.44788235860963,25.44788235860963,206.2117099725242
279.0560471976401,114.37234944429088,26.022648982125627,26.022648982125634,207.61795821008045
279.70501474926255,114.6668329847056,25.609570871132224,25.609570871132227,206.72439424410732
280.353982300885,116.07758039844556,26.190900901358585,26.19090090135859,206.54093171318792
281.0029498525074,114.34457331126848,26.91216768463455,26.912167684634554,207.14443182743352
281.6519174041298,114.92454368084113,26.380540632811652,26.380540632811652,204.20843275768618
282.3008849557522,115.55204751888303,25.981246448975625,25.98124644897563,208.50409136581973
282.94985250737466,113.99885760897075,26.6260358917127,26.626035891712693,206.58982220945586
283.5988200589971,118.02236171400774,25.85745174983887,25.857451749838873,207.6559661587256
284.24778761061947,117.13247092275935,25.87446587799118,25.87446587799118,206.2326008079785
284.8967551622419,117.24894804798068,25.806239466361387,25.806239466361387,208.1428603910851
285.54572271386434,119.60485490283973,26.453748041434825,26.45374804143482,204.8734062873859
286.19469026548677,118.67226000046138,24.99242663806041,24.99242663806041,208.6266574906058
286.84365781710915,118.0358288120284,26.080852971540395,26.0808529715404,206.34327085034334
287.4926253687316,118.42679878066248,25.544192952644003,25.54419295264401,208.60815864553103
288.141592920354,118.10341453818178,26.07251969921838,26.07251969921838,209.4827388270647
288.79056047197645,119.10014984899684,25.860652918924497,25.860652918924497,208.30246831595835
289.4395280235988,117.97838697556666,25.82853929624556,25.82853929624556,206.52129725752903
290.08849557522126,118.21161359760866,26.50714651251476,26.50714651251476,204.66703842230882
290.7374631268437,118.0700749514729,24.951802385180084,24.951802385180088,206.03160406763556
291.38643067846607,117.83734890690472,25.83935819515799,25.839358195157992,207.27865061665642
292.0353982300885,116.99670581898548,25.837076107746142,25.837076107746142,207.7211032199259
292.68436578171094,120.02386727837929,25.571487789434688,25.571487789434688,207.5597439736581
293.33333333333337,118.543775887922,25.99292375625609,25.99292375625609,205.51207632223702
293.98230088495575,119.76986542760363,25.232917711699656,25.232917711699663,207.9789300242994
294.6312684365782,120.19874410644194,23.857807356971204,23.857807356971207,207.5088231787823
295.2802359882006,118.04189421504482,24.634999193467273,24.634999193467273,207.1656512080789
295.92920353982305,117.80604107126037,25.315390029339323,25.315390029339323,206.3962216872265
296.5781710914454,119.11754643165413,26.038381558373107,26.038381558373107,206.09082505095162
297.22713864306786,117.74819956173658,25.724979492105287,25.724979492105287,206.37187352926543
297.8761061946903,120.86981028525054,26.13432107575199,26.134321075751995,205.93341162771432
298.5250737463127,120.39164035230742,25.70173570668059,25.70173570668059,205.1449227192831
299.1740412979351,120.63761631322676,24.869257892431232,24.869257892431236,205.05365324763144
299.82300884955754,117.39221697043925,25.65023099819442,25.650230998194427,203.81626594409175
300.47197640118,117.91686398063982,25.79317709834946,25.793177098349464,205.88809821687946
301.1209439528024,117.70789217221744,25.977396647038663,25.977396647038663,205.2549391858013
301.7699115044248,116.60903186613058,25.87304604325918,25.873046043259187,205.61327916726282
302.4188790560472,116.8282973746946,25.419507072243878,25.419507072243878,204.64132058360877
303.06784660766965,119.85067192750203,24.53902450595128,24.539024505951282,205.43918354407418
303.7168141592921,121.84766801402554,25.54718560770585,25.547185607705853,205.58548320454364
304.36578171091446,121.08128728842891,25.963801188712544,25.963801188712548,203.7513952254904
305.0147492625369,124.04891334061735,24.673184954635495,24.673184954635495,205.95437735507704
305.66371681415933,122.46144417784637,24.818010145212025,24.818010145212032,205.61471995895647
306.3126843657817,121.90112168329178,24.970189062131528,24.970189062131528,205.5061730517858
306.96165191740414,119.63352750556228,25.36713490417485,25.367134904174847,203.7800152518276
307.6106194690266,120.31254723321034,25.724260786097087,25.72426078609709,203.84649072918467
308.259587020649,121.08400341666862,25.980406337533918,25.980406337533918,204.89165946796027
308.9085545722714,120.93817986355226,24.951522318833483,24.951522318833486,205.12770433721386
309.5575221238938,120.5361771909126,25.7884594368544,25.7884594368544,204.56144096641484
310.20648967551625,123.05569323018483,24.481600597418982,24.481600597418986,204.8498785844323
310.8554572271387,119.46109737264815,25.65580315130916,25.655803151309158,206.23752523152643
311.50442477876106,122.29090121917062,24.6467552761847,24.646755276184706,204.3857035188897
312.1533923303835,121.03946581656412,25.005989960296223,25.005989960296223,204.5068613239323
312.80235988200593,122.59022647903929,24.6241504470062,24.6241504470062,205.63021652609285
313.45132743362836,120.32136832574135,24.635921016292723,24.635921016292723,203.35888630908994
314.10029498525074,118.83277126553932,25.98106279267926,25.98106279267926,201.70369790895285
314.7492625368732,122.01564676316427,25.009358570485865,25.009358570485865,203.90249971737643
315.3982300884956,123.96555409421505,24.579029520907216,24.579029520907213,203.92589235197127
316.04719764011804,121.83828365024183,24.669454619313985,24.66945461931399,203.91386461173383
316.6961651917404,121.29079446548592,26.16998510661303,26.16998510661303,205.29552279231658
317.34513274336285,119.55765383807054,25.27304242286009,25.27304242286009,202.5055303210857
317.9941002949853,119.05109498196312,24.85604161222644,24.85604161222644,202.29790364340062
318.64306784660766,121.40141864932818,24.966580005394416,24.966580005394423,205.04436503830274
319.2920353982301,121.02121935067586,25.15623393749602,25.15623393749602,201.7541060171797
319.94100294985253,121.4978618452849,25.421722378359423,25.421722378359416,201.97577641420452
320.58997050147497,121.47888038332219,25.034836112071677,25.034836112071677,202.13051489885703
321.23893805309734,121.18205264726845,25.142528647589273,25.142528647589273,201.97987982178685
321.8879056047198,122.56587064998418,25.0454104926911,25.045410492691104,204.28154999667294
322.5368731563422,123.17228840390045,24.88133628070179,24.88133628070179,203.51639805362615
323.18584070796464,124.65395215947663,24.54637372258071,24.54637372258071,201.6523452412603
323.834808259587,124.18083316006546,24.007487380424056,24.007487380424056,204.69791872385994
324.48377581120945,124.28743550559672,24.26844818987621,24.26844818987621,201.5869828657307
325.1327433628319,122.94523648248851,24.97090077633613,24.97090077633613,203.657714244395
325.7817109144543,123.81369013966344,24.37620815905967,24.37620815905967,200.95991587386223
326.4306784660767,122.50793505729487,25.297230351704595,25.297230351704595,200.58363979664747
327.07964601769913,121.65789745611492,24.379894227131256,24.379894227131256,201.97093988745192
327.72861356932157,122.25335362317618,24.634787807053343,24.634787807053343,201.46856316823803
328.377581120944,122.69845288471646,24.4504984566527,24.450498456652703,199.25098867099754
329.0265486725664,123.77378334846584,24.198299896100334,24.198299896100334,200.4570026190218
329.6755162241888,124.86890061192221,24.33004566639326,24.33004566639326,201.55271587865036
330.32448377581125,123.63541875895456,24.099387879219943,24.099387879219943,199.62110319854884
330.9734513274337,125.30462570994688,23.276252435438245,23.27625243543825,200.67447535264773
331.62241887905606,126.96293621567504,23.831636551340882,23.83163655134089,201.08441643193927
332.2713864306785,126.39089802267137,24.77913583701363,24.779135837013637,198.62193048298894
332.9203539823009,125.65566644623362,24.123622494156358,24.12362249415636,200.17005279006602
333.5693215339233,124.6902004625432,24.996463289917983,24.996463289917987,202.72129764796045
334.21828908554573,126.10986949992461,24.624119419400845,24.624119419400838,203.5243474080193
334.86725663716817,123.77706850214936,24.526378149069817,24.526378149069817,199.9008165099374
335.5162241887906,126.46046220126314,24.812446412843006,24.812446412843006,201.04996190341527
336.165191740413,124.24919299270626,23.868481977469262,23.868481977469262,201.50795824950418
336.8141592920354,125.370499734456,23.666319672586493,23.666319672586496,199.66613043500263
337.46312684365785,124.85120924911776,23.91941560181199,23.919415601811995,199.93796768644853
338.1120943952803,126.13108030279938,24.6393889741533,24.6393889741533,200.12706587582224
338.76106194690266,125.57562459630533,24.026242324983347,24.02624232498334,199.926633080672
339.4100294985251,124.49749066115727,24.857643405822806,24.857643405822806,198.17790285786478
340.0589970501475,122.9590205113851,24.09056434517556,24.09056434517556,201.69468260429366
340.70796460176996,124.77784653859594,24.697689940853284,24.697689940853284,200.37161375796896
341.35693215339234,125.99956451431314,23.808116818195465,23.808116818195465,198.30068507434973
342.00589970501477,125.71168050605324,23.929969421231355,23.929969421231355,198.62516497504407
342.6548672566372,125.22983874828994,24.223398368726638,24.22339836872663,198.12443070521837
343.30383480825964,125.69045444464142,24.09844064701183,24.09844064701183,198.85114031465747
343.952802359882,128.08433115075817,24.208945238479675,24.208945238479675,200.29576968777744
344.60176991150445,127.58262814538614,23.853995755870812,23.853995755870812,198.4099873051652
345.2507374631269,126.97846487768736,24.148292514103048,24.14829251410305,199.04304090272504
345.8997050147493,126.97828907145444,24.051609934767285,24.051609934767285,198.6540693949883
346.5486725663717,129.30607086524708,23.74692070362107,23.74692070362107,199.98920873410276
347.1976401179941,127.59918921630833,23.6820110883086,23.6820110883086,201.3676042159461
347.84660766961656,129.3291269863489,23.48350703335381,23.483507033353817,199.33571435981446
348.49557522123894,126.69977663936233,23.775652148926586,23.77565214892658,198.2949991776602
349.14454277286137,128.23721807024748,23.431410244218075,23.431410244218075,199.0855948429099
349.7935103244838,127.91374602146924,23.704081666834288,23.704081666834288,198.33185282712006
350.44247787610624,126.96320788348487,23.650748923935573,23.650748923935573,198.61051096792306
351.0914454277286,127.0576632948271,23.996128298561935,23.996128298561935,198.61231102614212
351.74041297935105,126.81918959649313,23.893615121731933,23.89361512173193,197.91817530000498
352.3893805309735,128.20921398699096,24.402151280069948,24.40215128006995,198.7693247879015
353.0383480825959,129.04689556690982,23.73974746823546,23.73974746823546,199.20250891259025
353.6873156342183,128.4153366431327,24.15689977814685,24.15689977814685,196.45053019666804
354.3362831858407,129.50291120163877,24.087765578387643,24.087765578387643,200.25679778422284
354.98525073746316,129.75934985830543,24.028480805972006,24.028480805972002,197.62454429048722
355.6342182890856,130.65355785895082,24.327400670742957,24.327400670742957,197.95924270536094
356.283185840708,128.4435893079846,23.99630803301651,23.99630803301651,199.0772410166352
356.9321533923304,126.80108198220512,23.234397219496046,23.234397219496053,197.25266874577886
357.58112094395284,127.52142168715488,24.2374386651393,24.237438665139297,196.14820729513198
358.2300884955753,127.3308319607494,24.197883523446496,24.197883523446496,196.76064772700474
358.87905604719765,128.30638856205752,23.668028242989,23.668028242989,196.66465982293946
359.5280235988201,127.50223048107944,23.2259182613383,23.2259182613383,195.0190194198622
360.1769911504425,129.02444186750608,23.92902157823098,23.929021578230977,196.7871834848597
360.8259587020649,128.03477116188404,23.25231084623442,23.252310846234426,198.33067397120269
361.47492625368733,128.78108823561655,23.092523545836073,23.09252354583608,197.07766083679087
362.12389380530976,129.0528897908007,22.969988123239105,22.969988123239105,197.8202984887126
362.7728613569322,129.08831307285578,23.220410338368215,23.220410338368218,195.48418818579353
363.4218289085546,129.8345704748722,23.07944175256468,23.07944175256468,196.35891948298553
364.070796460177,130.39623719482475,22.905504152777024,22.90550415277702,196.3590591274949
364.71976401179944,132.0381861067954,23.767006862607264,23.767006862607253,198.05053520435456
365.3687315634219,131.62078538057258,23.304930629333935,23.304930629333935,199.33604204316427
366.01769911504425,129.65737468210466,23.948967936971925,23.948967936971922,197.18189993368497
366.6666666666667,130.41481027718052,23.601798471575155,23.601798471575155,196.64872520767818
367.3156342182891,130.77045618318058,22.93411989033407,22.93411989033407,194.9393258231751
367.96460176991155,130.54078352868925,23.20943085533777,23.209430855337782,195.65720585994052
368.61356932153393,130.15481073385422,23.657689710292285,23.657689710292285,197.96802578695454
369.26253687315636,130.93232084044215,23.239281666759712,23.239281666759712,195.861185064092
369.9115044247788,130.52415754583248,22.95880581794235,22.95880581794235,196.0948921900106
370.56047197640123,131.37542027807228,22.938869183763597,22.938869183763593,196.6907052036488
371.2094395280236,131.96560795337956,22.924447710978566,22.924447710978566,197.51127129346443
371.85840707964604,130.27585179328344,22.959755385841103,22.95975538584111,197.32615287800996
372.5073746312685,132.4419247067194,22.930706531692554,22.930706531692554,195.13499147475758
373.1563421828909,132.56272507832472,23.57676485046332,23.57676485046332,197.24815153307284
373.8053097345133,130.38722494002158,23.62145137515981,23.62145137515981,197.90444589398734
374.4542772861357,130.59315171816084,22.962674863155293,22.962674863155293,197.0592843885995
375.10324483775815,132.036600369223,22.382124661283775,22.38212466128378,197.93386128059635
375.75221238938053,131.80062602262288,23.260599400206097,23.26059940020609,196.5980177626657
376.40117994100297,132.66752635875804,22.750640929173535,22.750640929173535,198.48047952701134
377.0501474926254,133.6089545750759,22.743575397497253,22.743575397497253,195.50328427493955
377.69911504424783,133.50835811145046,23.03895615373269,23.03895615373269,195.99918593471136
378.3480825958702,135.14311116161602,23.52322336115468,23.52322336115468,194.88662845159942
378.99705014749264,135.65785606505995,22.626199089496208,22.626199089496215,195.21776814023423
379.6460176991151,135.58203560581566,22.759061913524942,22.759061913524942,196.37324317080683
380.2949852507375,137.10274914272412,22.764829200208197,22.764829200208197,197.90230358169563
380.9439528023599,136.30899829729427,23.086313597162775,23.086313597162764,197.25999278653123
381.5929203539823,136.35861690294084,22.890594120105117,22.890594120105117,197.24395649199863
382.24188790560476,135.34042075288923,22.963731680941084,22.96373168094108,194.60217093136757
382.8908554572272,136.2857847718051,22.962468760647837,22.962468760647837,197.1779106150018
383.53982300884957,134.89686022908708,24.092506789932955,24.09250678993295,198.10934071386436
384.188790560472,134.7508612852319,22.80977291023549,22.80977291023549,197.82941688338235
384.83775811209443,135.6646191741747,22.639672293284573,22.639672293284566,196.56275403073067
385.48672566371687,135.7322564405576,22.472160496867474,22.47216049686747,194.25561908674777
386.13569321533924,135.12668043975222,22.378731323295074,22.378731323295074,193.89623114335114
386.7846607669617,135.39939107782337,22.751679956109715,22.751679956109715,194.97495937111094
387.4336283185841,134.96348803577305,22.508225405400296,22.5082254054003,194.62091707825894
388.0825958702065,135.66592502642726,22.337483978758137,22.337483978758133,195.77990117617148
388.7315634218289,134.86364942373345,22.3822246184291,22.3822246184291,195.9100040965761
389.38053097345136,135.37921559555483,21.97778515589916,21.97778515589916,196.25641027400223
390.0294985250738,134.89574119244025,22.53014725162137,22.53014725162137,195.1841515778291
390.67846607669617,134.8992853054241,22.74682878385918,22.74682878385918,194.55719629184384
391.3274336283186,133.70805312479874,22.339753991002706,22.339753991002702,194.2827534060748
391.97640117994104,135.06932952848322,22.21929852294951,22.219298522949515,193.10810627460714
392.62536873156347,135.02583867741416,22.026284750655105,22.026284750655105,194.17164194702826
393.27433628318585,136.59045809078,22.841755961488833,22.841755961488833,191.5453986911605
393.9233038348083,137.32433374046886,22.473469384211196,22.47346938421119,193.42474713326044
394.5722713864307,135.8794819583106,22.044895619999906,22.044895619999902,193.5033212642768
395.22123893805315,136.06343513698138,21.79680151609831,21.79680151609831,192.27925306610157
395.8702064896755,137.22202919307767,22.85800288134465,22.85800288134465,194.64084559485053
396.51917404129796,135.32956724090735,22.371422105789545,22.371422105789538,194.5878771947433
397.1681415929204,136.18773148832614,22.839229769150826,22.839229769150826,193.3116110259115
397.8171091445428,137.32512903010797,22.982769773209945,22.98276977320995,196.13112157643928
398.4660766961652,138.9125197098812,22.154751964750638,22.15475196475063,193.50229324266044
399.11504424778764,140.01375758136595,22.544329747964717,22.544329747964717,196.66652614607227
399.76401179941007,140.01209546764287,22.583445970439666,22.583445970439673,193.64707600573837
400.4129793510325,140.10364735124693,21.75018903459127,21.75018903459127,194.52851448342238
401.0619469026549,138.77030060994187,21.881309507542493,21.881309507542493,194.42649802119385
401.7109144542773,138.17873662369533,22.312640485508734,22.312640485508734,193.8961578760447
402.35988200589975,137.0662305617349,21.8818498353463,21.8818498353463,191.60005362095308
403.0088495575221,139.67710415540444,21.810797811861956,21.81079781186195,196.07636039833272
403.65781710914456,141.05839009397704,21.535856012921926,21.535856012921933,195.0808898315763
404.306784660767,141.9515445691496,22.43591539843387,22.43591539843387,196.81952843746797
404.9557522123894,142.30624208192242,22.364036734197853,22.364036734197857,195.2662801005203
405.6047197640118,140.71796808114453,22.302140770021328,22.302140770021328,194.227098758606
406.25368731563424,140.25877038222828,21.822448075680118,21.822448075680118,193.6102440519494
406.9026548672567,142.95234272511723,22.123076438178337,22.123076438178334,194.81211568229665
407.5516224188791,141.08448272215625,22.076537265812483,22.076537265812483,194.24761275767895
408.2005899705015,138.27421839287882,22.110488460298992,22.110488460298996,193.31706765839428
408.8495575221239,140.34558269902462,21.25989949572467,21.259899495724675,193.6262636364927
409.49852507374635,139.9878846716487,21.035841944108487,21.035841944108487,192.9597358283285
410.1474926253688,139.27425597901225,21.895265285873837,21.89526528587384,193.17959073735216
410.79646017699116,141.06569975471083,21.678080320958376,21.67808032095837,192.61491479370514
411.4454277286136,138.83883779096868,21.827770054295176,21.82777005429518,193.0555786139435
412.09439528023603,138.8425131517398,21.840810809791282,21.84081080979128,191.618643474573
412.74336283185846,140.3088896524808,21.792767752113395,21.792767752113395,194.97548224035233
413.39233038348084,140.99554078749895,22.015585871464207,22.015585871464207,194.5930102566706
414.0412979351033,140.95759847732597,21.97703136320787,21.977031363207864,192.5267651989981
414.6902654867257,140.60730865176214,21.969464941536092,21.96946494153609,194.361281905648
415.3392330383481,141.41724813250343,22.086320674236838,22.086320674236838,192.5868675288428
415.9882005899705,141.8052188305324,21.706730580735844,21.706730580735844,193.3233657759056
416.63716814159295,141.24427963772905,21.97723023228147,21.97723023228147,191.8168111999293
417.2861356932154,140.89668692542847,22.239660377767702,22.239660377767702,191.78540981889518
417.93510324483776,143.1997646028742,21.60393321312458,21.60393321312458,192.76470307295705
418.5840707964602,140.74606203685792,21.50624966689264,21.50624966689264,192.85498696273152
419.23303834808263,142.40252337700798,21.62581447769607,21.625814477696064,192.88677007273864
419.88200589970506,143.77758764321254,21.20158821332999,21.20158821332999,192.0669006708114
420.53097345132744,144.21174234365964,21.826651620246505,21.826651620246505,193.6040600921424
421.1799410029499,143.1180391486478,21.862520400900326,21.862520400900323,192.9134052735166
421.8289085545723,144.16333563488007,22.02738628029156,22.02738628029156,194.96648845264096
422.47787610619474,145.92471014840282,21.967999761315788,21.96799976131578,195.19853108044495
423.1268436578171,146.35684906853677,21.15759817503071,21.15759817503071,195.37877055509645
423.77581120943955,144.2701781013149,20.959533431300912,20.959533431300912,192.60124084246627
424.424778761062,146.65341751553095,21.923495840819875,21.923495840819875,194.65988425681516
425.0737463126844,143.937790332427,20.557241582160362,20.557241582160362,190.92467931662648
425.7227138643068,145.17548973284372,21.724407611578567,21.724407611578552,196.00409215306811
426.37168141592923,146.25992150349677,21.32913811809341,21.329138118093415,194.80563506071746
427.02064896755167,145.0221095045666,21.310996750963483,21.31099675096349,195.39336194283578
427.6696165191741,144.30543572445401,20.86939361224647,20.86939361224647,194.03889677167294
428.3185840707965,147.0666693077624,21.220087121492448,21.220087121492448,191.80128094702823
428.9675516224189,144.67325847565027,21.77800925006577,21.77800925006577,195.20211319537162
429.61651917404134,147.05707577598278,21.520592622627724,21.520592622627724,194.15764823403276
430.2654867256637,147.4683798565383,21.020382229139944,21.020382229139944,191.42727106008903
430.91445427728615,147.66581737856703,21.314941784223564,21.314941784223564,193.36133833167415
431.5634218289086,146.33789782463646,21.1524578840113,21.1524578840113,193.00111717595885
432.212389380531,146.43092736914605,21.440053050472862,21.440053050472855,191.23636891051038
432.8613569321534,145.0495846106619,21.624212177428607,21.624212177428603,192.5430383431209
433.51032448377583,145.4149339589501,20.874808650612902,20.87480865061291,191.92052031954725
434.15929203539827,145.64720300725767,20.802427918624783,20.80242791862478,190.73309502444252
434.8082595870207,143.1994937124831,21.350387799615,21.350387799615003,192.93200086763534
435.4572271386431,144.33065728536667,21.2915021750156,21.291502175015594,190.35035056414355
436.1061946902655,145.51524414712472,20.83549518953912,20.835495189539117,189.9009704423375
436.75516224188794,146.18157251502706,20.404432375366348,20.40443237536635,192.53726883140723
437.4041297935104,146.79224040174574,19.909131511596208,19.909131511596215,192.2955896170782
438.05309734513276,147.56008709063943,21.02606525841345,21.026065258413446,192.5792245755025
438.7020648967552,147.05632228025712,21.269903467368156,21.269903467368156,191.24731240656936
439.3510324483776,149.2106614950164,21.633878427164685,21.633878427164685,191.88384450319614
440.00000000000006,149.01657835237512,21.15955003318118,21.15955003318118,193.42542501014364
440.64896755162243,150.11203906650206,21.462162520774463,21.462162520774463,194.0093090854193
441.29793510324487,150.27007151786628,21.081060633567247,21.081060633567247,193.23199719937247
441.9469026548673,154.734409645481,20.43796270013965,20.43796270013965,190.74250543069112
442.59587020648974,152.15382400341196,20.085233989598397,20.085233989598397,188.46845396085106
443.2448377581121,153.71369421036047,19.081444739459332,19.081444739459336,190.1868638309252
443.89380530973455,155.27508812266262,19.954281547033077,19.954281547033077,190.03304186330934
444.542772861357,158.80902960081357,20.59300612363859,20.593006123638588,190.81542257575137
445.19174041297936,155.4951103082935,20.164616049005698,20.164616049005698,190.88996928580676
445.8407079646018,155.83485626079172,19.316503701559242,19.316503701559245,191.15954351514418
446.4896755162242,154.9452436950124,19.385189395700024,19.38518939570002,188.22759265577716
447.13864306784666,154.8643061118212,18.641932174315375,18.641932174315375,190.2096761896662
447.78761061946904,157.33270444767876,19.938286692282126,19.93828669228213,191.13835647281974
448.43657817109147,156.86632962347508,20.264165081789724,20.264165081789724,190.99683077359558
449.0855457227139,158.1902981099452,19.629102470864975,19.629102470864982,190.70089803176091
449.73451327433634,157.12451594871132,19.196686606804214,19.196686606804217,189.9650645388822
450.3834808259587,154.12708145846594,19.764411976799092,19.764411976799085,191.43752073226494
451.03244837758115,156.37499544069124,19.470115288811716,19.470115288811716,190.2085985726822
451.6814159292036,156.3210017035837,20.034554720193114,20.034554720193114,191.19357465152135
452.330383480826,156.14467832560035,18.56111790249868,18.56111790249868,188.69487281621986
452.9793510324484,157.20515871918022,19.192361440148336,19.192361440148336,191.08599618654486
453.6283185840708,157.19422396532326,19.671477255617383,19.671477255617383,191.26243232358922
454.27728613569326,157.89067595442228,18.827825911088585,18.82782591108859,188.65969593134966
454.9262536873157,155.49825560618913,19.020320185558674,19.020320185558674,190.69981380619873
455.57522123893807,156.72333635356063,19.916266064797785,19.916266064797785,189.14317260276937
456.2241887905605,156.3011043660738,20.0458872262849,20.0458872262849,189.70495547152134
456.87315634218294,156.71500794965948,19.485808165649647,19.485808165649644,191.8695167231984
457.5221238938053,159.0059053262911,19.111396983280162,19.111396983280162,190.51338054471873
458.17109144542775,156.7915431525016,19.10441343333349,19.104413433333487,189.5290566189364
458.8200589970502,160.43781271063375,18.642527529590936,18.642527529590936,189.89866514049035
459.4690265486726,157.85524137858346,19.495997815941063,19.49599781594107,191.89458778737418
460.117994100295,159.9546297699621,19.155105330050212,19.155105330050215,189.73817765626234
460.7669616519174,159.36015249704786,19.274588423672324,19.274588423672324,189.6178704593268
461.41592920353986,159.3879329047909,18.594763083855785,18.594763083855785,188.06430980099273
462.0648967551623,157.87908938767248,19.509419358211048,19.509419358211048,188.06409123715247
462.71386430678467,159.14344949440786,19.198934786260967,19.19893478626096,190.5626831627474
463.3628318584071,158.73245041985444,19.64875995708061,19.64875995708061,189.2889227044987
464.01179941002954,159.65000873206284,18.95584482054492,18.955844820544918,191.9355542839719
464.660766961652,159.8448195066479,19.355608670579443,19.35560867057945,187.72243425610333
465.30973451327435,159.19708288281487,19.497572206173277,19.497572206173277,187.7898810758567
465.9587020648968,159.0860714891632,18.746998152621806,18.74699815262181,187.16018266127136
466.6076696165192,159.5821561341017,20.092193314704076,20.092193314704076,190.93953419945908
467.25663716814165,159.94682999617436,19.18495352431364,19.184953524313638,189.76500067373678
467.905604719764,161.5770069083285,18.900948358930307,18.900948358930307,191.56570447442692
468.55457227138646,158.50548918272554,19.062530527511818,19.062530527511818,188.79755238935277
469.2035398230089,159.25867398206034,19.553972945085334,19.55397294508533,188.79329880348774
469.85250737463133,159.6262098990215,19.098970940476597,19.098970940476597,188.34526956821907
470.5014749262537,162.5034776226214,18.938766146874453,18.938766146874453,189.70818727615517
471.15044247787614,163.21073019706586,19.15766606443852,19.15766606443852,188.386783806508
471.7994100294986,166.16553782388306,18.75061658678735,18.75061658678735,192.2557624172519
472.44837758112095,162.95641343674498,18.616877007409954,18.616877007409954,189.90252700706952
473.0973451327434,162.19188700536768,19.02280104737098,19.022801047370983,192.36593507782317
473.7463126843658,161.99726562086863,19.232764496115344,19.23276449611534,188.7224108322799
474.39528023598825,164.35716775912942,18.943026640960845,18.943026640960845,190.68918597424556
475.04424778761063,164.12370962808592,18.652517329148807,18.652517329148807,188.58412000888018
475.69321533923306,162.94768960655279,18.540689996930176,18.540689996930176,189.00668342532828
476.3421828908555,163.41405901305896,18.998018551717987,18.998018551717987,188.16499301756434
476.99115044247793,164.51132908946968,19.404780017157858,19.40478001715786,188.69396902388507
477.6401179941003,165.55892489677305,18.53437912189566,18.53437912189566,188.52103402297294
478.28908554572274,165.27837808407514,18.76734811730081,18.767348117300806,191.33639555537232
478.9380530973452,165.90228989902977,17.86158106124366,17.86158106124366,187.75645957949726
479.5870206489676,164.91855920224535,18.490746108065796,18.490746108065796,190.188983370667
480.23598820059,164.35706300071342,18.77960693753693,18.77960693753693,189.89705395675102
480.8849557522124,165.74058977993622,18.6542301309117,18.6542301309117,189.1303406272765
481.53392330383485,164.88682841613956,18.998235288651795,18.99823528865179,188.57812736487995
482.1828908554573,165.00766963336707,18.418854866146887,18.41885486614688,188.97175971492
482.83185840707966,164.2606757549637,19.470489689666685,19.47048968966668,188.35527265129753
483.4808259587021,164.75017054396054,18.326965712476223,18.326965712476216,190.55236566948798
484.12979351032453,166.584129023213,18.405638440018258,18.405638440018258,190.23854476222914
484.7787610619469,166.28552894597664,17.971088005589678,17.971088005589678,191.29891674676674
485.42772861356934,166.97888612213913,17.928385190862294,17.928385190862286,188.58842136856515
486.0766961651918,166.02350436972245,18.452930476781283,18.452930476781276,189.70004077794565
486.7256637168142,164.10974760397747,17.9905030992149,17.990503099214894,187.02861476924107
487.3746312684366,165.27291393399733,17.45707158151306,17.457071581513063,187.33333802068836
488.023598820059,166.59860178385787,18.014015074201318,18.01401507420132,187.3664531202161
488.67256637168146,166.84837789738438,18.156298336847833,18.156298336847836,187.7297082548447
489.3215339233039,167.94939387872478,17.764096882577338,17.764096882577338,189.15949412473276
489.97050147492627,169.54975127854695,17.772383692750378,17.772383692750378,187.39665380026094
490.6194690265487,167.6353944678512,18.406372383905214,18.406372383905218,189.00015323752874
491.26843657817113,167.30500308154618,18.355785989304326,18.355785989304326,189.7655050134766
491.91740412979357,167.62222891455102,18.497708028377634,18.497708028377634,190.2894666268387
492.56637168141594,170.28927210880138,18.09098119770916,18.09098119770916,189.45304265800792
493.2153392330384,169.09594703220523,18.58538357892799,18.585383578927992,190.86362392025973
493.8643067846608,168.02529193461828,17.109923342260853,17.10992334226085,189.31005225838632
494.51327433628325,167.64593682024727,18.03045993821892,18.03045993821892,190.18167827959843
495.1622418879056,168.45781012821345,17.497483855532455,17.49748385553246,186.04155149273606
495.81120943952806,168.92475562254714,17.784307536839307,17.784307536839307,187.7627863985986
496.4601769911505,168.56576289673959,17.51728458947871,17.51728458947871,187.70946698635026
497.1091445427729,168.93648565906912,17.959724623501053,17.95972462350105,188.9405187312227
497.7581120943953,169.03370594649442,18.550203756343947,18.550203756343944,188.42651991175947
498.40707964601773,167.10956221366004,17.60520204432274,17.60520204432275,189.1046188398103
499.05604719764017,170.35983916457718,17.787047381176848,17.787047381176848,189.62899372861602
499.70501474926255,168.51739864793467,17.356923786015646,17.356923786015642,188.2861988152727
500.353982300885,170.93853416276315,18.05295251408753,18.05295251408753,190.18097397002126
501.0029498525074,169.48247646849447,17.48095739359859,17.48095739359859,188.83462578721534
501.65191740412985,167.30149004022036,16.876112846107745,16.876112846107745,186.66055494797223
502.3008849557522,169.68535158016448,17.502889788923255,17.502889788923255,187.38025551217052
502.94985250737466,170.11950909141473,17.758897799496904,17.758897799496904,186.95416048734398
503.5988200589971,168.65448675482014,17.335566852695944,17.33556685269594,189.36232411043878
504.2477876106195,172.35626758096535,17.164204167357234,17.164204167357234,188.8503802049554
504.8967551622419,171.755259126009,17.61986922364847,17.61986922364847,189.94435763438207
505.54572271386434,170.13576805887197,17.72774011894,17.72774011894,189.7601078740955
506.19469026548677,171.55011707996917,18.033241360726596,18.033241360726596,188.01966628796902
506.8436578171092,170.2030074853721,17.68847266046335,17.68847266046335,189.15276324461388
507.4926253687316,171.34943116241539,17.50351645305636,17.50351645305636,187.73999959395778
508.141592920354,174.7634980558312,16.41829629006299,16.41829629006299,188.55854349589566
508.79056047197645,171.47677010906781,16.648964198039433,16.648964198039433,188.2685253536762
509.4395280235989,174.64974730819165,17.116939755223292,17.116939755223285,188.181446146139
510.08849557522126,172.66491748200633,17.50309616542192,17.503096165421923,188.17858816466656
510.7374631268437,172.261524363666,17.48857859337195,17.488578593371948,187.28379356160323
511.3864306784661,172.74019649196262,17.44694471499967,17.44694471499967,186.73465657997565
512.0353982300885,173.9113872612375,16.34282716379181,16.34282716379181,187.25708884843837
512.684365781711,174.07118732664244,17.813737157134238,17.813737157134238,189.2963920881402
513.3333333333334,175.87823976330782,17.054940276694563,17.05494027669456,190.84671102002918
513.9823008849557,175.74734372160054,17.030510269780734,17.030510269780734,188.45895369116113
514.6312684365782,172.7012979080352,16.934079801643982,16.93407980164398,188.2382712105313
515.2802359882006,172.69101716682346,16.66104301977474,16.66104301977474,188.49506328205123
515.929203539823,174.09726394482792,16.751735171158,16.751735171158003,187.68251249242968
516.5781710914455,172.76869461578173,17.571477737353298,17.571477737353298,187.42873743936917
517.2271386430679,174.24787389542212,16.740178016737072,16.740178016737072,188.69065159043285
517.8761061946904,175.3898355602441,17.21551664263973,17.21551664263973,189.50559285220126
518.5250737463127,173.40975966845718,16.501735721242813,16.501735721242813,188.0006025406569
519.1740412979351,173.95854643438892,16.84830286174436,16.84830286174436,185.94610876815327
519.8230088495576,176.9738399478518,16.691312790813125,16.691312790813125,187.27935845867395
520.47197640118,176.61310141471301,16.808211317515354,16.808211317515354,188.36288765166032
521.1209439528023,178.92454365626307,16.331268146455585,16.33126814645558,188.24681189668266
521.7699115044248,180.02367589647503,17.75764595067365,17.757645950673652,188.96645360561513
522.4188790560472,178.97689092835057,17.02433635150884,17.02433635150884,188.96602236745315
523.0678466076697,177.9676435995396,16.732540146538526,16.732540146538526,187.53964914534026
523.7168141592921,178.11207459418173,16.42462655825055,16.424626558250555,189.95901573183684
524.3657817109145,178.22392046128434,16.19160563894905,16.191605638949042,185.97595496929966
525.014749262537,177.36653325256464,16.367162171489547,16.367162171489547,186.85636002712317
525.6637168141593,175.66620240494274,16.36196043346606,16.361960433466063,188.8427979048875
526.3126843657817,176.60238831152085,16.251136584114633,16.251136584114633,189.37234814309895
526.9616519174042,177.20095991447548,16.63357271689884,16.633572716898836,186.64360928880848
527.6106194690266,176.51929663329182,16.401094345211842,16.401094345211845,185.88116894053607
528.259587020649,177.91626415027406,17.223671623937946,17.22367162393795,187.23216884113407
528.9085545722714,174.94174299748417,16.73884611985857,16.73884611985857,185.35728981500887
529.5575221238938,173.94169424891504,16.19979123194588,16.199791231945877,185.5852818287887
530.2064896755163,176.34003931560258,16.53768057304275,16.537680573042742,187.5869500737068
530.8554572271387,177.62330338872033,16.122172073278502,16.122172073278502,186.8295187519335
531.5044247787611,178.59907808893814,16.71257791560551,16.71257791560551,189.0923025528472
532.1533923303836,180.16954217518756,16.455355358707347,16.455355358707347,190.66835659166847
532.8023598820059,178.69246042272886,16.90119701375644,16.901197013756445,186.52423959056648
533.4513274336283,178.37341526151835,16.272314077555485,16.272314077555485,186.27950040677737
534.1002949852508,179.24280496371568,16.64530795135265,16.64530795135265,186.0120280583959
534.7492625368732,178.24499424179493,16.098216689522747,16.098216689522747,185.92427601213666
535.3982300884957,179.7889112467455,16.50552689808681,16.505526898086803,187.22944591607077
536.047197640118,179.62295695355698,16.533787802275253,16.533787802275253,187.53369011867736
536.6961651917404,178.67447380682282,16.133281385876593,16.13328138587659,186.57962945358463
537.3451327433629,179.54046445875048,16.128131798611296,16.1281317986113,186.40773292513535
537.9941002949853,180.01198029678014,15.197274313430109,15.197274313430109,186.9371952907761
538.6430678466077,179.15768817374487,16.513524791221016,16.513524791221016,185.86879882357135
539.2920353982302,180.14729060867504,16.379608619251517,16.379608619251517,188.52172220152937
539.9410029498525,179.78451671400074,15.798477175542635,15.798477175542631,184.76972957207684
540.5899705014749,181.66642536484778,16.835133251492724,16.835133251492724,187.16440994467453
541.2389380530974,183.16546281345077,16.130322739590827,16.130322739590824,185.49099473149965
541.8879056047198,180.89856934843544,15.898027878723068,15.898027878723072,190.57497947613547
542.5368731563423,178.98096895551132,16.801457093206817,16.801457093206814,185.9715854254825
543.1858407079646,181.70750879607544,15.488946005176789,15.488946005176789,185.96328800919247
543.834808259587,181.2679513987133,16.039649404052856,16.039649404052852,185.002630733074
544.4837758112095,188.8461118290329,14.352298648459278,14.352298648459278,188.36707190134945
545.1327433628319,188.60117810395752,15.320016182026519,15.320016182026519,188.14560435867318
545.7817109144543,189.8359786354003,14.280483263030451,14.280483263030447,188.2589152580447
546.4306784660768,190.82373253589188,14.32318954813029,14.32318954813029,188.24208155811795
547.0796460176991,191.03940819212562,14.049031292562873,14.049031292562873,190.50183269753376
547.7286135693216,188.32867527784143,13.332194976826633,13.332194976826633,188.6403976883106
548.377581120944,189.39165417247477,13.782775184411028,13.782775184411022,187.89330451189477
549.0265486725664,189.9759055790714,14.124319858265542,14.124319858265538,185.2484211542734
549.6755162241889,188.5991667142007,13.694386717391106,13.694386717391106,187.5661190581615
550.3244837758112,188.7584389479817,14.415138889542195,14.415138889542199,187.96866831111032
550.9734513274336,189.1511089615818,14.705088703184442,14.705088703184442,186.35802698470917
551.6224188790561,188.88103701200384,14.33865716885395,14.338657168853954,187.57532864864822
552.2713864306785,191.60052856930827,14.699160226641313,14.699160226641306,186.2373103352339
552.920353982301,191.93069384275054,13.851868527405879,13.851868527405877,188.57059210215678
553.5693215339234,190.68608365680433,13.79102026008803,13.79102026008803,187.92201441927224
554.2182890855457,187.87096800611099,14.039886213882191,14.039886213882191,187.37209678000042
554.8672566371682,191.63914758512354,14.058172583655981,14.058172583655981,187.22280546804004
555.5162241887906,191.77855327639668,13.925238781291732,13.925238781291732,187.09511931584015
556.165191740413,191.94061086934036,14.21573819851688,14.215738198516883,189.0635172142686
556.8141592920355,192.4415648634181,14.231410769323642,14.231410769323642,189.32222949080202
557.4631268436578,191.38951125444197,14.721642237946455,14.721642237946455,189.05374302686195
558.1120943952802,193.0976994095251,14.238873788359728,14.238873788359724,187.64359527492823
558.7610619469027,191.36803467077993,14.408422277465611,14.408422277465611,186.97599226503377
559.4100294985251,192.75410777315153,13.892884716982314,13.892884716982318,186.11723565535917
560.0589970501476,190.9685138781748,14.486593488765813,14.486593488765813,186.42033080828455
560.70796460177,192.53957560871805,14.888696609175469,14.888696609175476,185.06559644575862
561.3569321533923,190.87910542447105,14.366065316396599,14.366065316396602,185.56938855158916
562.0058997050148,190.20183098538985,14.241218815246231,14.241218815246231,186.4335259557876
562.6548672566372,193.8097434595302,13.569941125390566,13.569941125390569,187.13100089386577
563.3038348082596,193.8471029293841,13.545771407693513,13.545771407693515,186.327553953669
563.9528023598821,192.5852620842317,13.338603390485694,13.33860339048569,186.27419044763155
564.6017699115044,193.8731253457941,13.729706091946063,13.729706091946067,186.79101122999953
565.2507374631269,193.76208848662918,13.34335703974347,13.34335703974347,188.69101386059006
565.8997050147493,193.86947303376414,13.237005264214629,13.237005264214632,186.32529316089938
566.5486725663717,194.58812837394285,13.304137631727171,13.304137631727174,185.66006964972175
567.1976401179942,194.6532989537405,13.84903269693835,13.849032696938348,188.68190004966735
567.8466076696166,195.2870172633472,14.25655719680533,14.25655719680533,187.1071706631424
568.4955752212389,194.6915949604481,13.812850328827375,13.812850328827375,186.7706266431071
569.1445427728614,195.75462928984328,13.231314707617502,13.231314707617504,187.58824569614075
569.7935103244838,195.23169496428463,13.467052241028536,13.46705224102854,188.1247198825943
570.4424778761062,197.34096221898724,13.230632610786428,13.230632610786431,185.05693804312233
571.0914454277287,195.65879314195834,13.541120297799852,13.541120297799852,188.97881215084385
571.740412979351,196.6443730686001,13.445556121309385,13.445556121309382,189.66703461789663
572.3893805309735,196.50687907122852,12.771334776358932,12.77133477635893,186.1302653984866
573.0383480825959,195.17940092438454,12.727379338788163,12.72737933878816,185.96518767067852
573.6873156342183,197.66325777460995,12.852636184981593,12.852636184981593,186.3202757958254
574.3362831858408,196.73019666025482,12.896137656651758,12.896137656651758,186.61370778412234
574.9852507374632,196.68732233990673,12.916479990478283,12.916479990478283,187.11254150087612
575.6342182890855,196.91594777204372,12.574748972161395,12.574748972161395,189.19321786902532
576.283185840708,198.28671057767468,12.786382866185392,12.786382866185388,189.49747822723188
576.9321533923304,197.4133183382214,12.607264643649515,12.607264643649513,189.37828434749804
577.5811209439529,197.6956615871585,12.581889388905543,12.581889388905548,188.06986866090807
578.2300884955753,197.51081307888197,13.06451685503886,13.06451685503886,186.68589669862914
578.8790560471977,196.97791171464624,13.567653294857829,13.567653294857832,190.00284105157192
579.5280235988201,198.13519052110922,13.098103494516973,13.098103494516973,188.54415664581188
580.1769911504425,198.6125058871038,12.795975621651742,12.795975621651742,188.79503117537328
580.8259587020649,198.19366653087445,11.80744210263666,11.807442102636658,190.8583525544788
581.4749262536874,196.893979172259,12.870467289584456,12.870467289584456,187.42399071947747
582.1238938053098,198.79531635651236,13.036625442671854,13.036625442671854,187.30355337357395
582.7728613569321,197.89994080150763,13.530276707722988,13.530276707722988,187.90491114848817
583.4218289085546,199.43076795004998,12.127819715455713,12.127819715455711,189.04235803273934
584.070796460177,198.57863943983665,12.626500373907245,12.626500373907245,188.4591921649035
584.7197640117995,199.18857255369224,12.175443919013695,12.175443919013695,191.2955256297519
585.3687315634219,198.27248917772016,12.854264456280584,12.854264456280585,190.3260598919368
586.0176991150443,199.3527418656326,12.219501330561865,12.219501330561869,188.66592462536764
586.6666666666667,198.71610242239583,11.672190131263669,11.672190131263667,187.78880425706632
587.3156342182891,198.7410892988122,12.6436468578375,12.6436468578375,186.52239828288313
587.9646017699115,200.72455420121221,12.99949491834894,12.999494918348942,188.2964780394525
588.613569321534,200.69964624419674,12.427030833392289,12.427030833392285,188.20552472202112
589.2625368731564,200.46421700383576,12.09791929897547,12.09791929897547,187.40211977900546
589.9115044247789,200.13344525215902,12.164482575499312,12.164482575499308,189.77604999784634
590.5604719764012,200.85508053437562,11.655468427639308,11.655468427639308,189.06678896872072
591.2094395280236,200.51318924839913,11.872123706669736,11.872123706669742,190.08504224676176
591.8584070796461,200.2253631192132,13.224036920244059,13.224036920244055,189.74561560189716
592.5073746312685,199.62777314911682,12.768669887551988,12.76866988755199,187.37420000516758
593.1563421828909,198.57942811399997,12.896235144988369,12.896235144988365,186.40989871182558
593.8053097345133,200.05617204455584,12.084240823335007,12.084240823335007,184.6696972989719
594.4542772861357,200.67643027601304,12.360713419984808,12.36071341998481,188.132159742244
595.1032448377582,199.38766275096495,11.932128995251265,11.932128995251263,187.4954596718071
595.7522123893806,199.71119787600688,11.949283836976967,11.949283836976967,188.27229868064097
596.401179941003,199.04362865472547,11.59170588109762,11.59170588109762,186.57813745067656
597.0501474926255,201.23971064017843,11.728142413348692,11.728142413348692,184.5653761362379
597.6991150442478,200.02224696318902,12.32085861793422,12.32085861793422,186.14009048456796
598.3480825958702,201.72645783423607,12.114840414306604,12.114840414306604,188.16216146321457
598.9970501474927,201.8634093371308,12.118108834432835,12.118108834432833,189.3070612808955
599.6460176991151,199.07887504937463,12.380465868264315,12.380465868264318,186.51266656547398
600.2949852507375,198.9409290660856,11.730819679950624,11.73081967995062,185.4902704154154
600.94395280236,200.0793810419809,13.24959767105187,13.249597671051873,188.58415889615
601.5929203539823,201.52309136095926,12.744210033356627,12.74421003335662,185.57871037681483
602.2418879056048,200.23584161445578,12.840109447655271,12.84010944765527,185.99173849419694
602.8908554572272,202.47003208722015,11.282171795218298,11.282171795218296,188.81619922869126
603.5398230088496,202.24615306144287,11.27590146038517,11.275901460385173,189.942426353713
604.1887905604721,204.48745391013176,11.384657275162665,11.38465727516266,189.91786090335106
604.8377581120944,203.94691380624639,11.348194841601332,11.348194841601327,188.97135247316712
605.4867256637168,204.05058000767102,10.845759893621633,10.845759893621633,190.71904558991793
606.1356932153393,203.39601733021993,8.988324013012084,8.988324013012086,192.95897250262436
606.7846607669617,204.70458135335537,10.993863195676028,10.993863195676028,190.97940461270127
607.4336283185842,204.93781896952973,10.926913799616601,10.926913799616601,190.04424035819966
608.0825958702065,203.89028685802265,11.768512948813498,11.768512948813497,188.16173499246494
608.7315634218289,203.4707106740691,10.750596493591047,10.750596493591049,188.6791029772938
609.3805309734514,204.80197565968894,11.399805802117227,11.399805802117227,188.17336086939287
610.0294985250738,203.9680631873753,10.737120133661419,10.737120133661419,187.48551816448776
610.6784660766962,203.75831194429102,12.017503337949105,12.017503337949105,189.27549010155653
611.3274336283187,205.10370181125478,10.833511650600874,10.833511650600878,188.10997022365476
611.976401179941,205.13838471417668,11.35355359327715,11.35355359327715,187.15469861413
612.6253687315634,204.34947929030824,11.558107248664568,11.558107248664568,188.12199437026052
613.2743362831859,204.64961220247932,11.061055362789075,11.061055362789078,187.51805382392962
613.9233038348083,203.34077358021474,11.291233482556203,11.291233482556203,187.30031069883762
614.5722713864308,204.99992959154085,10.535158192567835,10.535158192567831,186.5525406425312
615.2212389380531,205.6419213421207,10.471016219187854,10.471016219187858,187.9886088297773
615.8702064896755,206.56044375495864,11.168649637125595,11.168649637125592,190.18942432582273
616.519174041298,204.67359001864935,10.529160462899934,10.529160462899934,188.59346483270326
617.1681415929204,204.29033160829295,10.83843740326587,10.83843740326587,187.6854399175375
617.8171091445428,205.43587464789363,10.74382915307422,10.743829153074222,187.31797118887346
618.4660766961653,205.5005491852309,10.458110727389258,10.458110727389258,186.16073803117615
619.1150442477876,206.29093396352798,10.243067834641456,10.24306783464146,187.18679520989357
619.7640117994101,204.88359096109022,10.64574323176773,10.64574323176773,189.40683465516955
620.4129793510325,205.2368104100223,10.511555584207514,10.511555584207514,188.3040626520113
621.0619469026549,204.99853444919097,11.089603388416831,11.089603388416831,188.59749690875066
621.7109144542774,204.3974424915517,10.168437542215694,10.168437542215695,187.64411842473572
622.3598820058997,205.8521573372346,10.868711872757915,10.868711872757919,187.34048401964154
623.0088495575221,206.89748475842612,9.854346167700248,9.85434616770025,187.64813968385639
623.6578171091446,206.75530202632146,10.373210102874191,10.373210102874191,188.02948514573276
624.306784660767,207.3048060380231,10.111143319119385,10.111143319119385,187.85977156170338
624.9557522123894,206.75192579280412,10.636595173490294,10.636595173490297,189.17367912276515
625.6047197640119,206.79512147895105,9.8084831697102,9.808483169710199,190.38661139867506
626.2536873156342,207.362645415587,10.26689066512951,10.26689066512951,189.84518694752273
626.9026548672567,207.32544822012233,10.743266962211916,10.743266962211917,189.9847739306048
627.5516224188791,208.03395612123435,10.069321322801901,10.0693213228019,189.6144560181924
628.2005899705015,209.3917565376533,9.308219596432211,9.308219596432211,191.41982606515947
628.849557522124,209.3740854430687,9.355161998768262,9.355161998768262,189.38059911610034
629.4985250737464,208.44235066998118,9.64090798049374,9.64090798049374,190.48114667704422
630.1474926253687,209.21777793981647,9.427613902150918,9.427613902150917,190.3905038995256
630.7964601769912,208.9411294022592,9.079566647328015,9.079566647328015,191.8445111322946
631.4454277286136,209.80375431655295,9.950416813328417,9.950416813328417,192.4340515770121
632.0943952802361,208.78258668758681,9.875906920509271,9.875906920509271,190.16495455762163
632.7433628318585,208.74380316613207,9.471466460997172,9.471466460997174,189.07754417301265
633.3923303834808,210.39799256930777,9.513921695034657,9.513921695034657,189.28153274387694
634.0412979351033,209.42500654789634,9.971108447935316,9.971108447935318,188.59506476719665
634.6902654867257,208.51163768944434,9.210676329245095,9.210676329245095,187.79190297590588
635.3392330383481,209.73336847710755,9.405984261983711,9.405984261983711,187.6999376032816
635.9882005899706,209.18449532853205,8.879176434433981,8.879176434433985,187.57495429544133
636.637168141593,209.3898556814246,8.91669839930819,8.91669839930819,189.0188878103623
637.2861356932153,208.86516592446918,9.899064444389525,9.899064444389525,189.8393389312297
637.9351032448378,209.8364127522241,8.920498641114625,8.920498641114623,188.68116179127642
638.5840707964602,209.7862624134276,8.737933530550343,8.737933530550341,190.70075726743613
639.2330383480827,209.8382863651725,9.752202206035566,9.752202206035566,189.01495929476204
639.8820058997051,210.06156819742472,8.880820659424828,8.880820659424828,189.90490586731354
640.5309734513274,209.78739451079468,8.778952647826467,8.778952647826467,190.6305585972295
641.1799410029499,210.44793587771724,8.589846370310166,8.589846370310168,190.8176246880673
641.8289085545723,210.02577976301913,10.289875039236398,10.289875039236398,190.0056416644539
642.4778761061947,210.6369522766599,9.98109089388621,9.98109089388621,188.70152178158753
643.1268436578172,210.7939675425129,9.7569998895241,9.7569998895241,190.22689032412472
643.7758112094396,210.63797129759806,9.435292107916066,9.435292107916064,189.1389553205865
644.424778761062,211.33138578709386,9.916150382969745,9.916150382969745,190.62943895665234
645.0737463126844,210.93501664595095,9.934055861655121,9.934055861655121,188.5168821371658
645.7227138643068,209.48724119695945,10.085095712967723,10.085095712967723,189.83336432374688
646.3716814159293,210.06837044271705,9.764397834707125,9.764397834707125,190.36309973129278
647.0206489675517,210.40670206738375,9.37570727208836,9.375707272088356,191.202079215993
647.669616519174,209.93175016019163,9.242397118458932,9.242397118458928,190.29907154491158
648.3185840707965,211.0245280951368,10.144917687476177,10.144917687476179,189.44734837977654
648.9675516224189,210.11006005605006,8.657455239688902,8.6574552396889,191.932857730059
649.6165191740414,210.31404116324055,7.253700910111904,7.253700910111905,192.59381332254435
650.2654867256638,211.05866329679296,8.675751791958287,8.675751791958287,190.81528950079237
650.9144542772862,211.039793548887,9.069674017677432,9.069674017677432,190.86052860845206
651.5634218289086,211.9400003357094,8.607308757478865,8.607308757478863,192.52231881775478
652.212389380531,210.76015407538725,8.875844495847357,8.875844495847357,190.40479027626068
652.8613569321534,209.92610752349356,9.358680658943644,9.358680658943648,190.6845482106552
653.5103244837759,209.6313697564797,8.71294758025423,8.71294758025423,191.22519234625824
654.1592920353983,210.63301857366008,9.908962577018332,9.908962577018334,190.6413251712221
654.8082595870206,210.45316837238062,9.649605733710702,9.649605733710702,192.27077225779135
655.4572271386431,211.15301047386956,9.553444421828411,9.553444421828411,192.26797170446505
656.1061946902655,210.56760316830042,8.499025251934091,8.499025251934087,195.29911845907236
656.755162241888,210.35479722037675,9.10349604642772,9.10349604642772,191.66736768593924
657.4041297935104,211.61031856249775,8.573752987958395,8.573752987958395,192.99715434924616
658.0530973451328,210.24643231662543,8.487590551959023,8.487590551959027,192.28942451993473
658.7020648967552,209.47971620761226,8.493018307393033,8.493018307393037,195.27514341880993
659.3510324483776,210.79540567722083,8.904385910432168,8.904385910432168,191.49908699551088
660.0,210.74742284988906,9.158650719036446,9.158650719036446,192.5486962145201
