z in mm,sigma xx in mm2,sigma xy in mm2,ysigma yx in mm2,sigma yy in mm2
660.0,326.08412368773185,-25.449534513048743,-25.449534513048746,47.86122872359306
659.3452380952381,325.7081471036563,-25.996318591247583,-25.996318591247583,47.90903186730546
658.6904761904761,311.9830943223306,-23.523735471097304,-23.523735471097304,40.51638154724947
658.0357142857143,312.7592120105109,-24.31104008232194,-24.311040082321945,40.90269794154211
657.3809523809524,312.5689816104623,-23.55276027507746,-23.55276027507746,40.26504292841185
656.7261904761905,312.0362736338016,-23.722544982201054,-23.722544982201057,40.46423683312191
656.0714285714286,312.2884238089966,-23.813980261130617,-23.813980261130617,40.39174461448227
655.4166666666666,312.4952746423848,-24.420031705454836,-24.420031705454836,40.88013509606508
654.7619047619048,312.5851164807708,-23.569483786123968,-23.569483786123968,40.520400135580346
654.1071428571429,311.4999447783172,-24.31561051624174,-24.31561051624174,40.70793251750208
653.452380952381,310.6977836274812,-24.24490195557278,-24.24490195557278,40.33549372489146
652.797619047619,310.26141805607205,-24.29982737171323,-24.299827371713224,40.07468754081265
652.1428571428571,310.4921108539507,-23.81350955588345,-23.813509555883456,40.349796856837315
651.4880952380952,310.51593850871757,-24.057609642666165,-24.057609642666172,40.13116483623524
650.8333333333334,310.4752798489424,-23.280702203667857,-23.280702203667854,39.94883061664724
650.1785714285714,310.5025635832291,-24.146437125346846,-24.146437125346846,40.16945569206277
649.5238095238095,310.8767782993005,-23.931101664571056,-23.93110166457106,40.02192961564016
648.8690476190476,310.9516602746329,-24.02056383105491,-24.02056383105492,40.28914116384607
648.2142857142857,310.28862459350364,-23.607399385418688,-23.607399385418685,39.5742986088652
647.5595238095239,310.10541399209075,-24.460849494335463,-24.460849494335474,40.04706634615515
646.9047619047619,310.41727967042243,-23.564252901829068,-23.564252901829068,39.58524490951034
646.25,310.85627165368686,-23.069394359911506,-23.069394359911502,39.71918559866336
645.5952380952381,311.43911604345067,-24.146128685631446,-24.146128685631446,40.486156503326235
644.9404761904761,309.86167047209136,-24.001919866671674,-24.00191986667168,40.09915411761387
644.2857142857143,308.4599853618239,-23.729943808337364,-23.72994380833736,40.50977564149615
643.6309523809524,310.71743510829157,-23.817917234535024,-23.817917234535024,40.040254756792216
642.9761904761905,311.0795602176257,-23.93702507104104,-23.93702507104104,40.19729999718998
642.3214285714286,310.2391361464544,-24.493612237980663,-24.493612237980663,40.26022745623165
641.6666666666666,310.35261858977765,-24.437055934657074,-24.437055934657074,40.14438242117655
641.0119047619048,310.79170844924374,-24.356930770625056,-24.356930770625056,40.45011865871692
640.3571428571429,310.52790469203245,-23.755236253463803,-23.755236253463803,40.179946477023
639.702380952381,309.686235279214,-24.10857693641341,-24.10857693641342,40.558064530315164
639.047619047619,311.21818036264006,-24.21883162765309,-24.21883162765309,40.0412839556194
638.3928571428571,312.2541610653465,-24.942496353394475,-24.942496353394475,40.291155727183444
637.7380952380952,311.1548891826053,-23.99554959566221,-23.995549595662208,39.94582053987517
637.0833333333334,312.9317841824811,-24.681956883508942,-24.681956883508942,39.734489841497734
636.4285714285714,312.11172863800505,-24.86961925791932,-24.869619257919314,39.28673231685039
635.7738095238095,312.86838251502684,-25.15454595523915,-25.154545955239143,39.18733478471981
635.1190476190476,313.5147749917243,-25.431245258864493,-25.4312452588645,39.34856144397171
634.4642857142857,313.8604790092101,-25.555633230208187,-25.555633230208187,39.23092586303357
633.8095238095239,315.3054854393543,-25.805904033917212,-25.805904033917216,38.92157237593962
633.1547619047619,314.49625208990636,-25.66270553251704,-25.66270553251704,39.193353668617526
632.5,314.6674789982718,-25.992892868390655,-25.992892868390655,38.6917518461297
631.8452380952381,315.33260849842867,-25.938770995101525,-25.938770995101525,38.1746604676354
631.1904761904761,315.64277714954346,-26.40324799992129,-26.40324799992129,38.614519237116475
630.5357142857143,317.55707354573434,-26.317887172884312,-26.317887172884312,38.86994825331003
629.8809523809524,316.81987547121383,-26.377443200818547,-26.377443200818544,38.05963336369177
629.2261904761905,319.2124634354105,-27.850825336204686,-27.850825336204675,38.37773454481117
628.5714285714286,318.43455805759004,-26.88633412019364,-26.88633412019364,37.89936745918647
627.9166666666666,317.71532416757657,-26.80071280384019,-26.8007128038402,37.51569124618482
627.2619047619048,318.8506482354347,-28.005897921299532,-28.00589792129953,37.36756095784006
626.6071428571429,318.1712995903457,-27.209410238931586,-27.20941023893158,37.35968540798804
625.952380952381,319.2019581132255,-27.401681467304048,-27.401681467304048,37.10432054469304
625.297619047619,319.85607784317546,-28.186788379455542,-28.18678837945554,37.1257468271432
624.6428571428571,319.7425057112412,-27.992907906935056,-27.992907906935066,36.74062965577602
623.9880952380952,320.41096525341453,-28.018989804341903,-28.018989804341903,36.375139347415434
623.3333333333334,320.7364931089253,-28.18069147820378,-28.18069147820378,36.24793009635297
622.6785714285714,321.05386810534674,-28.95065033998324,-28.950650339983245,36.26840968614481
622.0238095238095,319.95749361774597,-27.644882522836312,-27.644882522836312,36.92301499450175
621.3690476190476,321.02006712958934,-28.22100658459646,-28.221006584596456,35.86079328526382
620.7142857142857,321.87180578593257,-28.93980788959845,-28.93980788959845,35.81393898724605
620.0595238095239,321.4731531484788,-28.640885541865973,-28.640885541865973,35.40867019175236
619.4047619047619,322.36619847596194,-28.952241953155003,-28.952241953155003,35.26252440438012
618.75,322.27231426535565,-29.227218689093853,-29.227218689093853,35.641130038560675
618.0952380952381,322.4433434961554,-29.485982888451712,-29.48598288845172,35.0636703091268
617.4404761904761,323.48223672928816,-29.161526932020816,-29.161526932020816,35.38106765577834
616.7857142857143,323.242461018258,-29.38609247972193,-29.38609247972193,35.09838021353436
616.1309523809524,323.7627594121894,-30.021757683386888,-30.021757683386888,34.95627282593773
615.4761904761905,324.2471512056426,-29.7221658162258,-29.7221658162258,34.40168265443083
614.8214285714286,323.97741335351293,-29.369776519439174,-29.369776519439164,34.05430232232165
614.1666666666666,326.07209145273873,-29.510966099860447,-29.510966099860447,33.8714859329119
613.5119047619048,324.5516343387148,-29.600155635405624,-29.600155635405624,33.52708544539291
612.8571428571429,325.5031286461073,-29.70481918048088,-29.70481918048088,33.659195356404105
612.202380952381,325.60939552773453,-29.86715417131953,-29.86715417131953,33.50339925675312
611.547619047619,325.6364482251714,-30.170792244458926,-30.170792244458926,33.540479521091264
610.8928571428571,326.6266614339189,-30.568687153682625,-30.568687153682617,33.16329942526596
610.2380952380952,326.2583094604778,-30.51563891178504,-30.51563891178504,32.84722233645121
609.5833333333334,326.88813705650136,-30.604773528759427,-30.604773528759427,32.6771900570595
608.9285714285714,326.5491139764912,-31.310800720205812,-31.310800720205812,33.434512418712295
608.2738095238095,327.8442013712902,-30.939470683704428,-30.93947068370442,32.880524858298635
607.6190476190476,327.50623297759984,-31.4720731817784,-31.4720731817784,32.78601328514444
606.9642857142857,327.8980355572934,-31.93494092678112,-31.934940926781117,33.06142815482247
606.3095238095239,328.396460387402,-31.90128393413763,-31.90128393413763,32.406360677529065
605.6547619047619,328.1847824862003,-31.626707354298624,-31.626707354298624,32.19850782910279
605.0,329.5048559294303,-31.514666676845007,-31.514666676845014,31.93751615283874
604.3452380952381,329.34667367118846,-31.87015220504133,-31.87015220504133,31.961020924021813
603.6904761904761,329.1980966709481,-31.809791371348307,-31.809791371348304,32.00814148495072
603.0357142857143,330.74439949774916,-32.42039966286503,-32.42039966286503,31.860817274973982
602.3809523809524,329.9363625695381,-32.38629148011988,-32.38629148011989,31.718572111031452
601.7261904761905,330.53213166501075,-32.67743347473852,-32.67743347473852,31.33244215630714
601.0714285714286,331.74721411259696,-32.77105671730702,-32.77105671730702,31.911997069610074
600.4166666666666,331.430147975681,-32.99095362604046,-32.990953626040465,31.953210040535964
599.7619047619048,331.97144117886074,-32.77823339402792,-32.77823339402792,31.270154781003036
599.1071428571429,331.19517901872507,-33.097965577997826,-33.09796557799783,30.97954998702023
598.452380952381,331.43818355974537,-32.694890403174526,-32.69489040317453,30.27661269516309
597.797619047619,331.6652970588688,-32.4876312044697,-32.48763120446969,30.211046988480078
597.1428571428571,331.8489827002376,-33.23547676900286,-33.23547676900286,30.486047440437407
596.4880952380952,332.19510162703085,-32.45237286154215,-32.45237286154215,30.07017010297693
595.8333333333334,333.7500679028589,-33.15648049518593,-33.15648049518594,30.596827524035387
595.1785714285714,332.9459515803291,-32.98875757467817,-32.988757574678175,30.181459939326647
594.5238095238095,334.11183683649875,-33.54532327281291,-33.545323272812915,30.286407954076502
593.8690476190476,334.9226796777228,-33.098646893617754,-33.098646893617754,29.857242972909518
593.2142857142857,335.1148556495648,-33.16951004167587,-33.16951004167587,29.812595277387153
592.5595238095239,334.82227569838017,-33.70050660493289,-33.7005066049329,30.309758043825898
591.9047619047619,333.78949402958426,-33.85068966601127,-33.85068966601127,29.237081239014245
591.25,334.3726821148992,-33.93040330958137,-33.93040330958137,29.1287628871408
590.5952380952381,334.9144956549072,-34.28768742814383,-34.28768742814383,29.03232716457631
589.9404761904761,334.2069235445822,-33.944403884166135,-33.944403884166135,28.780958849445703
589.2857142857143,334.34196702937174,-34.178324862348134,-34.17832486234815,28.802401672835146
588.6309523809524,335.8577168425011,-34.41304576296404,-34.41304576296404,29.42973934770604
587.9761904761905,335.65437016955684,-34.16350347754345,-34.16350347754345,28.299385485813595
587.3214285714286,335.2796151666739,-34.2558784866319,-34.2558784866319,28.25080230832046
586.6666666666666,336.3219808339068,-33.94335297675184,-33.94335297675184,28.07688891362501
586.0119047619048,335.6530858374401,-34.259117142614414,-34.259117142614414,28.015395950612945
585.3571428571429,336.1884451256816,-34.38709628093492,-34.38709628093491,27.939533859349613
584.702380952381,336.1044123250067,-34.54566612441443,-34.54566612441443,27.857636107416443
584.047619047619,337.51668054347437,-34.474301282977656,-34.474301282977656,27.92587674206811
583.3928571428571,337.550888287055,-34.78855502821693,-34.788555028216926,28.22271821240445
582.7380952380952,338.361165369292,-35.25215832163279,-35.2521583216328,27.48504707304652
582.0833333333334,337.99992791769847,-35.01480873763054,-35.01480873763054,27.617137978991728
581.4285714285714,337.9786432955482,-34.91143906794363,-34.911439067943626,27.18823270152026
580.7738095238095,338.44459077143676,-34.922836049472,-34.922836049472,27.095287657482682
580.1190476190476,337.4218881710681,-34.72498851224171,-34.72498851224171,26.95118524995465
579.4642857142857,338.11557528673984,-35.6394414721643,-35.6394414721643,27.160433721564416
578.8095238095239,338.19957005432514,-35.35631852863101,-35.35631852863101,26.885763778778053
578.1547619047619,339.12342369296715,-35.16683248500571,-35.16683248500571,26.66719347582395
577.5,339.239213722481,-35.54170587248827,-35.54170587248827,26.514696601916263
576.8452380952381,340.08313875937756,-35.14467212491243,-35.144672124912425,26.33474843951086
576.1904761904761,340.5347501502945,-35.59523805416241,-35.59523805416241,26.696482730223885
575.5357142857143,340.44908029601675,-35.466375984559015,-35.466375984559015,26.54932676047892
574.8809523809524,337.9215583612884,-35.115921407587706,-35.115921407587706,24.355969178629756
574.2261904761905,338.0320482994882,-35.45218826702453,-35.45218826702452,24.115573259293644
573.5714285714286,337.48350108068854,-35.2588941671794,-35.2588941671794,24.511447248669075
572.9166666666666,338.21569976402384,-35.57796666173601,-35.577966661736006,24.030959325904277
572.2619047619048,338.58372645091947,-35.608593088249705,-35.608593088249705,23.696580692693406
571.6071428571429,338.8045940949746,-35.359700788547386,-35.359700788547386,23.704399054823405
570.952380952381,338.7245796208851,-35.8075775530669,-35.8075775530669,23.63560701558595
570.297619047619,339.04627220258186,-35.57744636612484,-35.57744636612484,23.595569716196557
569.6428571428571,339.8102691772906,-35.84694070316421,-35.8469407031642,24.41776392984019
568.9880952380952,340.3799420192081,-35.83901528682624,-35.83901528682624,24.1734171969985
568.3333333333334,338.8077178664053,-35.39430459478162,-35.39430459478164,23.585556448618203
567.6785714285714,338.49889515463946,-35.924324026907996,-35.92432402690799,23.448036501654222
567.0238095238095,337.0346787778317,-35.54290057886566,-35.54290057886566,22.407341877631115
566.3690476190476,338.40824541936627,-36.06621892754401,-36.06621892754401,22.621058209819875
565.7142857142857,338.8893205224959,-36.044730227351,-36.04473022735102,22.349032016764937
565.0595238095239,338.6358845710155,-36.45560725392437,-36.45560725392438,23.340542929294056
564.4047619047619,337.5855493313877,-36.06068905681553,-36.06068905681552,22.48348639008242
563.75,338.267697538917,-35.62262820807327,-35.62262820807327,22.053656525587527
563.0952380952381,338.489215886982,-36.290441001545254,-36.290441001545254,21.83126325109201
562.4404761904761,338.99763436662045,-36.21641308375372,-36.21641308375372,21.773980653140594
561.7857142857143,339.96508560893994,-36.63669742465801,-36.636697424658,22.031602895489108
561.1309523809524,339.58753610279433,-36.70652909119785,-36.706529091197844,21.836852817007944
560.4761904761905,339.85835761849296,-36.65249478158608,-36.65249478158608,21.872935553588164
559.8214285714286,339.60331578403395,-36.73622246529999,-36.73622246529999,21.941287506967793
559.1666666666666,340.1376843168173,-36.72149077168952,-36.72149077168952,21.927384826551876
558.5119047619048,340.2471750523963,-36.854435611399126,-36.854435611399126,21.861763162824264
557.8571428571429,340.6065553351903,-36.8513739955291,-36.85137399552911,21.787134311819408
557.202380952381,340.75887146813074,-37.10022698958008,-37.10022698958008,21.621379381032895
556.547619047619,340.29747788932616,-37.21910189227462,-37.21910189227462,21.715333955052078
555.8928571428571,338.9378319486452,-36.80838829154761,-36.8083882915476,21.5994432589655
555.2380952380952,340.5403915090085,-36.93855398889597,-36.93855398889597,21.292598070800278
554.5833333333334,341.06296068208957,-37.06224148697917,-37.06224148697917,21.225296735651156
553.9285714285714,340.9213693014642,-37.129297756509075,-37.129297756509075,21.17010375253519
553.2738095238095,340.39966662643616,-37.637850860746454,-37.63785086074646,21.246504415526786
552.6190476190476,340.2056882308196,-37.613047620606224,-37.613047620606224,21.352133135868918
551.9642857142857,340.864701485535,-37.23960518633144,-37.23960518633144,22.73607500447421
551.3095238095239,340.37327495455867,-37.609933579358945,-37.609933579358945,21.30829646310964
550.6547619047619,341.38532118938576,-37.69989238208475,-37.69989238208475,21.19746596142097
550.0,341.78895736774194,-37.55033778169754,-37.55033778169755,21.79288101873026
549.3452380952381,341.1325381998793,-37.72881778821891,-37.72881778821891,21.744049961104597
548.6904761904761,342.12278583055524,-37.7473673564057,-37.7473673564057,21.25507922378928
548.0357142857143,342.18706757571954,-38.042253473294785,-38.042253473294785,21.115746589909463
547.3809523809524,342.55872933546203,-37.92034619567521,-37.92034619567521,21.14943770101607
546.7261904761905,342.62462734398315,-37.99254567314125,-37.99254567314125,20.910097039771525
546.0714285714286,342.3675598282325,-37.997231329313564,-37.997231329313564,20.84619400727569
545.4166666666666,342.1071447087967,-37.675795441884276,-37.675795441884276,21.00329379111192
544.7619047619048,342.47498145668663,-37.96529184101174,-37.96529184101174,20.90860459225499
544.1071428571429,342.77153895029784,-38.0485612857684,-38.0485612857684,20.968972945877155
543.452380952381,342.1592727596437,-38.21422054894418,-38.21422054894418,21.061156890151103
542.797619047619,342.71905554159116,-37.71314298560666,-37.71314298560666,20.9208085551497
542.1428571428571,342.83246102234693,-38.24922155821428,-38.24922155821429,20.96162655542951
541.4880952380952,342.00418392286304,-36.834027847303176,-36.834027847303176,21.953065524232102
540.8333333333334,341.99682769206265,-37.891922628405844,-37.891922628405844,20.82277639346964
540.1785714285714,341.7351551349051,-38.06541592347825,-38.06541592347825,20.847285086307853
539.5238095238095,343.165494071448,-38.26527244192345,-38.26527244192345,20.688375189338476
538.8690476190476,342.15934324294955,-37.948227216902936,-37.948227216902936,20.62722035220473
538.2142857142857,342.61955658375905,-38.43157765082335,-38.43157765082336,20.67013976998547
537.5595238095239,343.12125960312204,-37.853870191939976,-37.85387019193997,20.39949139836178
536.9047619047619,343.16082543478274,-38.13326873504076,-38.13326873504076,20.659573946479576
536.25,342.7861245582607,-37.85748393509046,-37.85748393509046,20.63310638438159
535.5952380952381,343.1687193215329,-38.123369686914536,-38.123369686914536,20.741140088369175
534.9404761904761,342.8436137000039,-38.35782635935411,-38.357826359354114,20.758744187075735
534.2857142857142,343.5285088317038,-38.273099707929674,-38.273099707929674,20.753327731412185
533.6309523809524,342.5908705723726,-38.13499111453131,-38.13499111453131,20.702951966068476
532.9761904761905,343.8669335199758,-38.126728731717144,-38.12672873171713,20.695189705006108
532.3214285714286,343.2985045020013,-37.88199869459835,-37.88199869459835,20.75389136987675
531.6666666666666,343.42039945209564,-38.09791576571537,-38.09791576571537,20.736534964273183
531.0119047619048,342.9147028796935,-38.049083708766105,-38.049083708766105,20.723144927035744
530.3571428571429,343.17935893803684,-38.54791738352792,-38.54791738352791,20.917154398837795
529.702380952381,343.2093333031331,-38.26600733218077,-38.26600733218077,20.855943286927445
529.047619047619,343.71822944202626,-37.98723567876345,-37.98723567876345,20.75755647030704
528.3928571428571,343.2397010737537,-38.2544411103966,-38.2544411103966,20.954769997074447
527.7380952380952,344.25452437185163,-37.981847368915524,-37.981847368915524,20.832190486626367
527.0833333333334,343.14401106592305,-38.22404008167173,-38.22404008167173,20.968367440080637
526.4285714285714,342.6553015727802,-37.985024070162176,-37.985024070162176,20.762872338894613
525.7738095238095,344.3208721220512,-37.937921570591726,-37.93792157059172,20.78730443488105
525.1190476190476,343.7187766777599,-38.33276076212351,-38.332760762123506,20.991191078074188
524.4642857142858,343.4865305078179,-37.98748905137235,-37.98748905137235,20.845494286977353
523.8095238095239,342.9371155428429,-38.13360558930047,-38.13360558930047,20.892727926207662
523.1547619047619,343.3557939412909,-38.5285073210958,-38.528507321095795,21.27697833758797
522.5,343.6086474157442,-38.10988464956251,-38.10988464956252,20.897273999943028
521.8452380952381,343.0077131903982,-38.22438591564466,-38.22438591564466,21.0648327782348
521.1904761904761,343.96233617384826,-37.89652765975316,-37.89652765975316,21.021437074412994
520.5357142857142,343.4264872034453,-38.27641306494797,-38.27641306494797,21.215109589107346
519.8809523809524,343.1103759723119,-38.00183555883668,-38.001835558836675,21.256889433157696
519.2261904761905,342.87495195900544,-37.93299596167738,-37.93299596167736,21.17348965825392
518.5714285714286,342.87690472256315,-38.1651276861625,-38.1651276861625,21.422443755246057
517.9166666666666,342.98993246855554,-37.883957040252604,-37.883957040252604,21.507912207273858
517.2619047619048,342.9949279780634,-38.08289436473602,-38.082894364736006,21.37896471353074
516.6071428571429,341.87938392018447,-35.87949341117883,-35.87949341117883,27.4808388149537
515.952380952381,342.77538427971075,-37.5818950395255,-37.5818950395255,21.505856614237686
515.297619047619,343.18160465469634,-38.15871781357753,-38.15871781357753,21.535559760825237
514.6428571428571,343.39772728877114,-37.249780671577476,-37.249780671577476,22.377456203691867
513.9880952380952,343.12893640147485,-38.32331943900782,-38.32331943900782,21.63214353307242
513.3333333333334,343.13278910160653,-37.968240909113334,-37.968240909113334,21.848115515635868
512.6785714285714,342.9137537460146,-37.770884420364666,-37.770884420364666,21.811795229410997
512.0238095238095,343.7498587033184,-38.06141260492966,-38.06141260492966,21.866543816791378
511.3690476190476,342.86401143630053,-37.706208375076926,-37.706208375076926,21.96938679635804
510.7142857142857,342.7765289157254,-38.0454759323766,-38.0454759323766,22.6996785787688
510.0595238095238,343.1711962702937,-37.475628306290425,-37.475628306290425,22.2438267838739
509.4047619047619,343.57368509173574,-37.6832774109471,-37.683277410947106,22.02015133137837
508.75,343.1906526504699,-37.930892861452826,-37.930892861452826,22.196643685349688
508.0952380952381,338.53727118652824,-35.74550648122615,-35.74550648122615,27.052808985079817
507.44047619047615,333.9920685277691,-35.691058322900865,-35.691058322900865,32.31581520498124
506.7857142857143,337.99572028861303,-34.53830876183201,-34.53830876183202,28.624708637118374
506.1309523809524,336.8920602859543,-35.48525669801672,-35.48525669801672,28.875015521938973
505.4761904761905,337.3382557463927,-34.741092998669586,-34.741092998669586,28.945532906588397
504.82142857142856,336.57188529336054,-35.08910241205825,-35.08910241205825,29.57290595448568
504.16666666666663,337.11796829113933,-34.76628737301776,-34.76628737301776,29.322155811004638
503.51190476190476,336.04552478870977,-34.60422168718343,-34.60422168718343,29.526840230055626
502.8571428571429,337.0090611745057,-34.87811733771712,-34.87811733771712,30.18545474249312
502.20238095238096,336.2834586510142,-34.29116865498335,-34.29116865498335,29.893787017179207
501.54761904761904,336.26705271425357,-34.60896283719696,-34.60896283719696,30.01974652574874
500.8928571428571,336.6108312742409,-34.29796458040719,-34.29796458040719,30.208299960752168
500.23809523809524,335.37732583276386,-34.60845835945125,-34.60845835945125,30.4118524093258
499.58333333333337,335.45014097992583,-34.69854177656182,-34.69854177656182,30.953236504481513
498.92857142857144,336.3920076093829,-34.399397483910995,-34.399397483910995,30.965185908525307
498.2738095238095,334.2565923853453,-34.33988125946823,-34.339881259468235,31.036093154643453
497.6190476190476,334.64226366629134,-34.47868574413042,-34.47868574413042,31.717805739744204
496.9642857142857,335.31352324970305,-28.492912417828983,-28.492912417828983,37.52679090385718
496.3095238095238,334.6967358301124,-33.62031920466419,-33.62031920466419,32.44052988042342
495.6547619047619,334.88393952846235,-33.456982203228634,-33.456982203228634,32.07444094212997
495.0,334.7447981469636,-33.41747894003771,-33.41747894003771,32.33819250652019
494.3452380952381,333.7761025880652,-33.07112532707357,-33.07112532707357,32.392202702221375
493.69047619047615,334.20491028551623,-33.45942375268671,-33.45942375268671,32.94571402593668
493.0357142857143,333.9268541185664,-33.551767120292006,-33.551767120292006,33.25475794793164
492.3809523809524,333.86705265305955,-33.05190468093,-33.05190468093,33.275206493306925
491.7261904761905,334.0487967729197,-32.86784869390705,-32.86784869390705,33.27989910383832
491.07142857142856,333.81556262036634,-32.869075521298285,-32.869075521298285,33.68553488975542
490.41666666666663,333.2761686999163,-32.72614585663789,-32.72614585663789,33.745245955698664
489.76190476190476,333.7791042636277,-33.030302054493234,-33.03030205449323,33.93595739688651
489.1071428571429,333.0878438095752,-32.82865879429796,-32.82865879429796,34.18910508139314
488.45238095238096,333.5023074704534,-32.74510741574188,-32.74510741574188,34.50458692068312
487.79761904761904,333.0126727255773,-32.8391331851939,-32.8391331851939,34.60930308866675
487.1428571428571,333.236881371436,-32.69359656396137,-32.69359656396137,34.70611542729899
486.48809523809524,332.7454697433554,-32.64725403926568,-32.64725403926569,34.81073892530766
485.83333333333337,332.56258297987216,-32.126882933372606,-32.126882933372606,35.31411818704872
485.17857142857144,332.3850994544466,-32.08425173490941,-32.08425173490941,35.48752080641642
484.5238095238095,331.95214764981125,-31.964798450674014,-31.964798450674014,35.74342759757562
483.8690476190476,331.2313955110335,-31.402024262088094,-31.4020242620881,35.68653192084753
483.2142857142857,332.00904003239793,-32.006664971603044,-32.006664971603044,35.88660707772281
482.5595238095238,331.5798111613102,-31.64041907668787,-31.64041907668787,36.395423040765095
481.9047619047619,332.00818088163584,-31.647368701004115,-31.647368701004115,36.60869239973718
481.25,331.3489673467096,-31.466176684110525,-31.466176684110525,36.6910164407854
480.5952380952381,331.80713013659323,-31.51527058713183,-31.51527058713183,36.71958727286201
479.94047619047615,330.19533012874314,-31.33545676820453,-31.33545676820453,36.94969512023793
479.2857142857143,330.9708509555253,-31.50334528522674,-31.50334528522674,37.32421666377105
478.6309523809524,330.226251160305,-31.48917650931273,-31.48917650931273,37.815253212029006
477.9761904761905,330.17707434302577,-31.49630270374654,-31.49630270374654,38.176644874776514
477.32142857142856,330.06254942290485,-31.113561366095137,-31.113561366095137,38.270578783547435
476.66666666666663,330.70407463964057,-31.35536856394718,-31.355368563947174,38.73166406402798
476.01190476190476,330.1109541209072,-30.62070013500916,-30.62070013500916,38.97991673213753
475.3571428571429,328.6837338505207,-31.158886038278762,-31.158886038278762,39.0331190723843
474.70238095238096,328.423837320329,-30.99430691383681,-30.994306913836816,39.39995283422188
474.04761904761904,328.6245468224266,-30.88222029058645,-30.88222029058645,39.319241856581115
473.3928571428571,328.06320529181977,-31.00576439075368,-31.00576439075368,39.67805176565501
472.73809523809524,328.17240147382176,-30.669344501067343,-30.669344501067343,39.68847595590647
472.08333333333337,328.8548118469644,-30.98825698709768,-30.98825698709768,40.08988408350082
471.42857142857144,327.78518132837473,-30.703339020967825,-30.703339020967825,40.28038834390275
470.7738095238095,328.3223624664167,-30.818556538019067,-30.818556538019067,40.71538266265402
470.1190476190476,327.3434043616508,-30.586557173044902,-30.586557173044902,40.75377658558299
469.4642857142857,327.3384610900096,-29.86960547547243,-29.86960547547243,41.490294745120586
468.8095238095238,327.52583810405906,-29.879507985444917,-29.879507985444924,41.765431770191185
468.1547619047619,327.18935774896784,-29.665676574147007,-29.665676574147007,41.929496212447084
467.5,327.37211041607503,-29.43096900370299,-29.43096900370299,41.76723586021903
466.8452380952381,326.4773917667505,-29.292050451261748,-29.292050451261748,41.918530005715226
466.19047619047615,325.9959228494263,-29.270334186781188,-29.270334186781195,41.07894160856444
465.5357142857143,326.0161570595144,-29.2101576888694,-29.2101576888694,42.3547329249666
464.8809523809524,326.29407946605784,-29.202001754605764,-29.202001754605764,42.727990667030376
464.2261904761905,326.17298149920566,-29.212937141179435,-29.21293714117944,43.099200535778444
463.57142857142856,325.5320213757819,-29.198669989326905,-29.198669989326905,43.76876253969641
462.91666666666663,325.84274789221007,-28.910794999410033,-28.91079499941003,43.90116911103676
462.26190476190476,325.40501770722017,-28.532958791245967,-28.53295879124597,43.84491938485085
461.6071428571429,325.2727812475808,-28.38511778240568,-28.38511778240568,44.245752594271636
460.95238095238096,325.827335777064,-28.378202122514896,-28.378202122514896,43.94279410543513
460.29761904761904,325.4771727843213,-28.22079626258233,-28.220796262582322,45.463956828122626
459.6428571428571,325.18477993871005,-28.345212398476843,-28.34521239847683,46.14412284663448
458.98809523809524,324.713030047771,-27.765507338813254,-27.765507338813254,46.480876293200026
458.33333333333337,324.90227884497034,-27.78791956240041,-27.78791956240041,46.5538003145137
457.67857142857144,323.8117015633968,-27.55131177817477,-27.551311778174778,46.57820347748164
457.0238095238095,324.64844135154874,-27.78649918681229,-27.78649918681229,47.47339370518617
456.3690476190476,323.7958329794686,-27.54927830158509,-27.54927830158509,47.44326973707619
455.7142857142857,324.0742641132122,-27.972516267233235,-27.972516267233235,47.541911492079535
455.0595238095238,323.17274454318215,-27.6186751051473,-27.618675105147307,47.66825531910776
454.4047619047619,323.4226394729305,-26.9493561050546,-26.949356105054598,48.25006587762353
453.75,323.69791947051687,-27.249384630869216,-27.249384630869216,48.803963197309116
453.0952380952381,324.2543137789514,-27.187114173445273,-27.187114173445277,49.52460418830116
452.44047619047615,323.66977056524956,-26.903320776131835,-26.903320776131835,49.72833978925491
451.7857142857143,323.37542889205207,-26.426407135059627,-26.426407135059627,49.970814575522354
451.1309523809524,323.737078493034,-26.54259951539968,-26.542599515399687,50.39723513429292
450.4761904761905,323.94975612799897,-26.506503551653957,-26.506503551653957,50.52412588758397
449.82142857142856,322.9946703222875,-26.40662882874295,-26.406628828742953,50.895675179662454
449.16666666666663,322.50373498412324,-26.04892171889392,-26.04892171889392,50.90686434125382
448.51190476190476,322.25006649901894,-25.976202250675158,-25.976202250675158,51.379402658926914
447.8571428571429,322.52131708491805,-25.775123528689072,-25.77512352868908,51.58427953202071
447.20238095238096,321.2504161419389,-25.538888794278208,-25.5388887942782,51.79095067991293
446.54761904761904,321.6274757243767,-25.497800027609497,-25.497800027609497,51.90800769429062
445.8928571428571,321.39665309470763,-25.470068450469554,-25.470068450469554,52.28220768566663
445.23809523809524,320.7692518821481,-25.20968838073651,-25.20968838073651,52.518669601753366
444.58333333333337,320.6221452168911,-24.77294835347894,-24.77294835347894,53.32560692250023
443.92857142857144,319.91828445190066,-25.028938804400298,-25.0289388044003,53.638511773946966
443.2738095238095,320.05514898298964,-24.965109922505388,-24.96510992250539,53.94964586533318
442.6190476190476,319.54019600037327,-24.768638764067493,-24.768638764067493,53.83925156726081
441.9642857142857,319.80110062057014,-25.23121193936527,-25.231211939365274,54.326538589814774
441.3095238095238,319.5073695316773,-24.662909178727453,-24.662909178727446,54.250799117541526
440.6547619047619,318.89261151663214,-24.298624935200188,-24.298624935200188,54.860004775140915
440.0,317.7662452961477,-24.152378104791335,-24.152378104791335,55.27093471627374
439.3452380952381,319.561996452304,-23.998474755491227,-23.99847475549123,56.15743401487673
438.69047619047615,319.85129218689536,-23.725542440032232,-23.72554244003223,57.12477148114529
438.0357142857143,320.61686359706965,-23.411480834694427,-23.41148083469443,59.293197387759676
437.3809523809524,320.8213803674508,-23.283519269830816,-23.28351926983081,59.71632566559417
436.7261904761905,321.0200536167719,-22.81191065352368,-22.81191065352367,60.93665827020454
436.07142857142856,321.65933823523653,-22.992626925286018,-22.992626925286014,61.21496516720754
435.41666666666663,322.608288667957,-22.767912080283935,-22.76791208028393,60.952450098551125
434.76190476190476,320.699007302104,-22.466132122564396,-22.466132122564396,61.20447436613636
434.1071428571429,320.5181549898722,-22.495853987484377,-22.49585398748438,61.602700713484865
433.45238095238096,320.12090101022466,-22.33153517311232,-22.33153517311232,61.943861224291105
432.79761904761904,320.20076317982046,-22.05334661221528,-22.053346612215282,62.32243108047726
432.1428571428571,320.30416188973606,-22.527549555899725,-22.52754955589972,62.555461300280164
431.48809523809524,320.02167549783934,-22.171990967185,-22.171990967184996,62.85234556368086
430.83333333333337,319.7070030916558,-22.139383223763286,-22.13938322376329,63.316903288021145
430.17857142857144,318.88260612020656,-21.56975820571834,-21.56975820571834,63.90900042642035
429.5238095238095,318.11683921016703,-21.780170655410213,-21.780170655410213,67.03939430579302
428.8690476190476,319.26270937066204,-21.839507946000555,-21.839507946000555,63.92888642284096
428.2142857142857,319.1104898469283,-21.652944814104572,-21.65294481410457,64.49379664570513
427.5595238095238,317.8703413922815,-21.66709106270673,-21.66709106270673,68.73967225383429
426.9047619047619,318.5186085814539,-21.418434750116102,-21.418434750116106,65.9704233231087
426.25,318.45294235054155,-21.16522273068863,-21.16522273068863,66.43501027541231
425.5952380952381,318.34810684667036,-20.82879153584293,-20.828791535842928,66.68259147523533
424.94047619047615,317.68654341829404,-20.478905112679772,-20.478905112679765,68.71447447360823
424.2857142857143,318.14879665145514,-20.432099071975692,-20.432099071975696,67.8389115828994
423.6309523809524,317.519166384192,-20.693626842956302,-20.693626842956313,68.1935121665823
422.9761904761905,317.36701742102804,-20.22181411143321,-20.22181411143321,68.60961770488251
422.32142857142856,316.9621567907966,-19.748691809594533,-19.748691809594533,67.8375322492769
421.66666666666663,317.0767156924656,-19.88516375514476,-19.88516375514476,68.40020823226949
421.01190476190476,315.98282702966037,-20.18457625474926,-20.18457625474926,68.5213426939144
420.3571428571429,315.92150992072425,-19.991031284076907,-19.991031284076907,68.91868592882966
419.70238095238096,315.38229695299106,-19.912629593857922,-19.91262959385793,69.91194173658168
419.04761904761904,315.0785983983718,-20.28624078611115,-20.28624078611115,70.33644386221685
418.3928571428571,315.40640469776366,-19.798723701577458,-19.798723701577458,70.01840044590786
417.73809523809524,314.99180947959286,-19.34519498119488,-19.345194981194876,71.07254286454241
417.08333333333337,314.51039533978656,-19.65103532480704,-19.651035324807037,71.42017230986235
416.42857142857144,314.36015090972927,-19.080353866153725,-19.08035386615373,70.94609478314169
415.7738095238095,314.3222850744283,-19.198006355533526,-19.198006355533533,70.96399820468676
415.1190476190476,313.5625766286697,-18.831255946195903,-18.831255946195903,71.54756141366629
414.4642857142857,313.8365900770075,-18.436845546328588,-18.436845546328588,71.71593400639443
413.8095238095238,314.6378840324669,-18.715307218524067,-18.715307218524067,72.88269430531336
413.1547619047619,314.57295386946805,-18.391926151059284,-18.391926151059277,73.7887514642004
412.5,313.7202757845511,-17.940055823536525,-17.94005582353652,74.62929434623818
411.8452380952381,313.641489713778,-17.404757998373128,-17.404757998373128,75.1162132548397
411.19047619047615,313.4090913640472,-17.581758177221626,-17.581758177221626,75.24281669166655
410.5357142857143,312.952075812556,-17.556282041227536,-17.556282041227544,75.72202749926444
409.8809523809524,312.28006814353125,-17.89415269026146,-17.89415269026146,75.86443423906898
409.2261904761905,312.32955103272803,-18.0539853859945,-18.0539853859945,76.49547517333376
408.57142857142856,312.53860186422384,-17.457987869796515,-17.457987869796515,76.32372404896039
407.91666666666663,312.58986500786887,-17.146462630705436,-17.146462630705436,76.89392749411567
407.26190476190476,312.45003850527115,-16.927346418654324,-16.927346418654324,77.99302362665222
406.6071428571429,311.7720877995915,-17.10949643803438,-17.10949643803438,77.70107711973304
405.95238095238096,311.81140727241416,-16.651680331053434,-16.651680331053434,78.03863046276439
405.29761904761904,314.14023006751955,-16.458561779243194,-16.458561779243194,80.81357307830991
404.6428571428571,312.85621902849175,-16.846228967503954,-16.846228967503954,81.60988209349527
403.98809523809524,314.90018052090994,-16.886736954386983,-16.886736954386983,84.82001064099138
403.3333333333333,314.58728405213867,-16.833429222995022,-16.833429222995022,85.7356573094011
402.67857142857144,314.05170607296316,-16.78748221456586,-16.787482214565866,86.04723492026885
402.0238095238095,313.9336442294113,-16.061071672274153,-16.061071672274153,86.11415592333007
401.3690476190476,313.2758961312847,-16.031987180561902,-16.031987180561902,86.75752849178517
400.7142857142857,314.1218260897812,-16.325768424856488,-16.325768424856484,87.46427492908573
400.0595238095238,312.6873526300595,-16.187160440986617,-16.187160440986613,86.73290020226032
399.4047619047619,313.46265447910366,-16.461955999626884,-16.461955999626888,87.15304886447872
398.75,312.65591468230485,-15.547276164965938,-15.54727616496594,86.66147657746147
398.0952380952381,312.3322729546102,-15.488639752121212,-15.48863975212121,87.7114706175618
397.4404761904762,311.69288282071545,-15.621947477736946,-15.621947477736946,87.51801990146933
396.7857142857143,311.6487966785996,-15.691206521515555,-15.691206521515557,88.81190306911559
396.13095238095235,311.25107816986525,-14.900321481143981,-14.90032148114398,88.7559231619621
395.4761904761905,311.5938545916669,-14.772307898057475,-14.77230789805748,89.21154306141968
394.82142857142856,310.7212081201118,-15.374253142731826,-15.374253142731824,89.63430733427145
394.1666666666667,310.9885760175429,-14.83348122050124,-14.833481220501234,90.66167263983712
393.51190476190476,310.22683476648467,-14.965589456836987,-14.965589456836987,91.62678079606334
392.85714285714283,309.9453185414687,-16.381045638418026,-16.381045638418026,93.91335785897986
392.20238095238096,309.9426343268877,-14.855345928762171,-14.855345928762171,92.48498941895163
391.54761904761904,310.20645927533207,-14.510516683545823,-14.510516683545825,92.25777210650732
390.89285714285717,310.02125373714244,-14.333168304498273,-14.333168304498273,92.83021743480184
390.23809523809524,309.5521011526768,-14.124754874264877,-14.124754874264871,93.46284151851371
389.5833333333333,309.4858366782408,-14.474432087559284,-14.474432087559288,94.15225321585693
388.92857142857144,309.4479116369234,-14.016576874725116,-14.016576874725121,94.1257985775919
388.2738095238095,309.84863324161057,-13.87946687826787,-13.879466878267866,95.30490367267424
387.6190476190476,309.0221110772756,-14.104188948741735,-14.104188948741735,95.51567646029854
386.9642857142857,308.5655490954603,-13.57383847207889,-13.573838472078885,95.68705638537065
386.3095238095238,308.88419846903116,-13.923217414253452,-13.923217414253457,96.40189080036181
385.6547619047619,308.58869484827284,-13.840033535164384,-13.84003353516438,96.98895507327843
385.0,307.6786821069564,-13.713409658861536,-13.713409658861536,97.28913776241005
384.3452380952381,307.68039115797814,-13.322262107130802,-13.322262107130802,97.56500475421757
383.6904761904762,307.44093586726086,-13.2554330292535,-13.2554330292535,98.45758314307102
383.0357142857143,307.11812320126046,-13.056960944324693,-13.056960944324686,98.59577184481061
382.38095238095235,306.56206604893913,-12.61308600577329,-12.61308600577329,98.56614088002283
381.7261904761905,307.21184907126377,-13.085948144096111,-13.085948144096111,99.00355827566426
381.07142857142856,306.27422044738137,-13.032273968609292,-13.032273968609294,100.08043374143136
380.4166666666667,306.78329013066445,-12.935530252690041,-12.935530252690034,100.36467179575811
379.76190476190476,306.4220441726697,-12.503465553668372,-12.503465553668372,100.44306305053948
379.10714285714283,305.95134833111456,-12.423034410162265,-12.42303441016226,100.89529733974311
378.45238095238096,303.9059313965717,-11.683469552054856,-11.683469552054854,99.08458482695579
377.79761904761904,304.04821230270784,-11.264184028577732,-11.264184028577732,98.88634996626593
377.14285714285717,303.38393627006235,-11.580824890952297,-11.580824890952297,99.22197654901234
376.48809523809524,303.3127747872694,-11.476373325008039,-11.476373325008037,98.80614909484133
375.8333333333333,302.7542621379944,-10.8696538230727,-10.8696538230727,98.04846268462751
375.17857142857144,302.5332958092904,-10.928942951113518,-10.92894295111352,98.83485823036175
374.5238095238095,301.8117173675937,-11.288753432308615,-11.288753432308619,99.19498349066353
373.8690476190476,301.9193752250376,-11.08066819195083,-11.08066819195083,99.50874989442687
373.2142857142857,301.57148315585766,-10.6224466008791,-10.622446600879094,100.36259589995224
372.5595238095238,301.1323843591072,-10.931103380548414,-10.93110338054841,100.72903387026099
371.9047619047619,301.66617902745475,-10.584350076302679,-10.584350076302679,101.28363758140614
371.25,300.57915714724794,-10.871460538260125,-10.871460538260125,101.94987789576722
370.5952380952381,300.75664562234397,-10.689383580659069,-10.689383580659069,102.3077720089281
369.9404761904762,300.50892076472906,-9.836872496756802,-9.836872496756802,101.55052175675415
369.2857142857143,300.4123831896002,-10.384930010872754,-10.384930010872749,102.53454604852149
368.63095238095235,300.1122581351647,-10.676321020390334,-10.676321020390334,103.1516650419278
367.9761904761905,300.5792489403906,-10.341306313983443,-10.341306313983443,103.54366299913544
367.32142857142856,299.9545751197443,-10.483022807729244,-10.483022807729247,104.4741892924711
366.6666666666667,299.20014429056846,-10.50766626000587,-10.507666260005868,103.87434643752069
366.01190476190476,299.0624671654642,-10.445059781656795,-10.445059781656795,104.9828377296446
365.35714285714283,298.6375741143393,-10.308456167335258,-10.308456167335258,105.29582517797517
364.70238095238096,295.59744953413764,-8.996126040467805,-8.996126040467802,100.88390655012816
364.04761904761904,298.757643298252,-9.458532888573247,-9.45853288857325,106.05881986529893
363.39285714285717,298.72723507000796,-9.264534257330268,-9.264534257330272,105.69191310327155
362.73809523809524,298.0174786203811,-9.258289045757024,-9.258289045757028,107.31314389810092
362.0833333333333,298.81755150670244,-9.15755662764128,-9.157556627641279,107.61874882292044
361.42857142857144,297.9866222905167,-9.086697888855005,-9.086697888855007,106.96338034686676
360.7738095238095,296.91765495070143,-8.519598457938388,-8.519598457938386,106.75161023280472
360.1190476190476,295.74868094383453,-8.446606496986416,-8.446606496986414,106.41954375330138
359.4642857142857,295.2233118667428,-8.858087331489902,-8.858087331489903,106.06263147700588
358.8095238095238,296.02087995798837,-8.493505804112775,-8.493505804112774,107.23624333053667
358.1547619047619,296.22259234481027,-8.323574368980523,-8.323574368980525,108.9361985692494
357.5,295.5491952401895,-7.988148847256266,-7.988148847256261,109.46368697590744
356.8452380952381,294.9956565543488,-8.412904838280111,-8.412904838280111,108.89674097136303
356.1904761904762,294.32923559164215,-8.382753452258523,-8.382753452258525,109.4409500304029
355.5357142857143,294.0126624434414,-7.552537205712472,-7.552537205712469,109.10837313491034
354.88095238095235,293.59937256751425,-7.695142393203975,-7.695142393203968,109.92453487040208
354.2261904761905,293.9102698349892,-7.733285952478273,-7.733285952478268,109.96340376110666
353.57142857142856,294.2555586537648,-8.348941854457786,-8.348941854457783,110.49260222360799
352.9166666666667,293.5790634593356,-8.482750557840916,-8.48275055784092,111.37404346355423
352.26190476190476,294.3948899513123,-7.795932977975906,-7.795932977975909,111.90200418246576
351.60714285714283,293.039452715362,-7.816597725584887,-7.816597725584887,111.98150896290919
350.95238095238096,294.65564603989696,-7.324152533642582,-7.324152533642589,114.84162677373982
350.29761904761904,294.46218651755675,-7.339598464465799,-7.339598464465794,114.90452224925984
349.64285714285717,294.97963389389594,-8.119298864347426,-8.119298864347424,116.8242950085099
348.98809523809524,294.4745747483454,-7.657216600869999,-7.657216600870002,116.94836944561814
348.3333333333333,294.68057987461276,-7.60116887867147,-7.601168878671466,117.97520776613314
347.67857142857144,293.8404873106257,-7.3912931545627405,-7.391293154562739,119.5501946215102
347.0238095238095,294.12615169699234,-6.429819703652139,-6.429819703652139,119.98697044733349
346.3690476190476,294.0350272020447,-7.083864248287849,-7.0838642482878535,120.73736961595283
345.7142857142857,293.98548732261173,-6.767422655153085,-6.767422655153087,121.37181580311884
345.0595238095238,292.95497862581334,-6.792186939541638,-6.792186939541643,121.54984869429687
344.4047619047619,292.79022117595974,-7.525382328306887,-7.525382328306887,121.89619914558423
343.75,292.73540350534705,-6.564302324926597,-6.5643023249265955,122.18927232825669
343.0952380952381,292.6619736424096,-7.020223228138937,-7.020223228138937,123.20904749638298
342.4404761904762,292.83895568760727,-6.6943780280776926,-6.694378028077698,124.38097571058935
341.7857142857143,292.31628186641314,-6.532915340431083,-6.532915340431084,123.94176333140103
341.13095238095235,291.4764356178997,-6.406382779349756,-6.406382779349752,124.28834402790422
340.4761904761905,292.5565954763125,-6.329655017116957,-6.329655017116956,125.41110040425293
339.82142857142856,291.9691631332783,-5.930563955869881,-5.930563955869887,125.88966540599026
339.1666666666667,291.62591322353086,-6.007233757881808,-6.007233757881805,126.75400450370266
338.51190476190476,291.73262989969066,-6.366049384456202,-6.366049384456207,126.44962009688703
337.85714285714283,291.53982373983274,-5.46189139755413,-5.46189139755413,127.73238129327814
337.20238095238096,292.04703367788613,-5.639913452808416,-5.639913452808415,127.20695197365481
336.54761904761904,291.05661789530285,-6.236257564315137,-6.236257564315139,128.15300815357546
335.89285714285717,290.7629118881758,-5.831035885891926,-5.831035885891924,128.70216299985572
335.23809523809524,290.77634895991156,-5.872217628132561,-5.872217628132559,128.41738168962843
334.5833333333333,290.4171428838313,-5.655111887308333,-5.655111887308333,130.05406706235996
333.92857142857144,290.86008184955307,-5.398544740988683,-5.398544740988685,129.58964653362312
333.2738095238095,289.79146577132036,-4.992072694558194,-4.992072694558195,130.133980305312
332.6190476190476,290.0151040942786,-5.888944887526385,-5.888944887526385,131.2884900896458
331.9642857142857,290.3622555004048,-5.775028832169368,-5.7750288321693715,131.4086204713916
331.3095238095238,289.52795328374935,-5.1339070123003046,-5.133907012300306,131.2661792664279
330.6547619047619,289.7355554317243,-5.167750657138444,-5.167750657138446,131.4104125678072
330.0,289.1599090820002,-5.293673054938508,-5.293673054938511,131.8815868296788
329.3452380952381,288.40028790623836,-5.0831614160287755,-5.083161416028775,132.99901629380756
328.6904761904762,289.51307626246785,-5.332097393208313,-5.332097393208313,133.51036098580846
328.0357142857143,288.63694433210253,-5.086299895008131,-5.086299895008136,133.66930171273557
327.38095238095235,288.3459649131408,-4.808564979431119,-4.808564979431123,134.95592228631222
326.7261904761905,288.2078871405553,-5.247142899471088,-5.24714289947109,134.1248021572239
326.07142857142856,287.93929374451363,-4.994531532536245,-4.994531532536239,134.87563868859053
325.4166666666667,288.2529197697676,-4.622265787730066,-4.622265787730067,134.91464890860297
324.76190476190476,287.8121736760553,-5.098018815221046,-5.098018815221048,135.61852180513088
324.10714285714283,287.71937641895977,-4.546056868017903,-4.546056868017904,136.75246076580135
323.45238095238096,287.53940607572974,-4.828700553630416,-4.828700553630414,136.41390362796952
322.79761904761904,286.94254465123856,-5.138829659027297,-5.138829659027296,137.95964846175505
322.14285714285717,287.0033070852079,-4.5007401163154785,-4.500740116315479,136.91556773631237
321.48809523809524,285.2274660674915,-4.81067404193823,-4.810674041938231,138.48133805772804
320.8333333333333,286.7073202870219,-4.94800332156598,-4.948003321565981,138.58466392685446
320.17857142857144,287.32442533676823,-4.397836774690216,-4.397836774690211,138.43775133211835
319.5238095238095,286.13147628087125,-4.6442105908168285,-4.644210590816829,139.16281421016603
318.8690476190476,286.9100970591998,-4.717913399372437,-4.717913399372436,139.52576131646217
318.2142857142857,285.6462132742186,-4.7387100593430995,-4.7387100593430995,139.71576340459902
317.5595238095238,285.60659334299356,-4.6034802116776445,-4.603480211677648,140.24910064373552
316.9047619047619,286.3172035727191,-4.394485942735564,-4.394485942735564,140.00403225596418
316.25,284.7977531167169,-3.3533262493729854,-3.3533262493729885,140.7160387618278
315.5952380952381,285.91010637102,-4.321247445738344,-4.321247445738339,140.5994467400735
314.9404761904762,285.07213855265087,-4.128583958944077,-4.128583958944075,141.31378745444272
314.2857142857143,286.08073950715357,-4.169799072944434,-4.169799072944431,142.72150191031443
313.63095238095235,285.8940886832656,-3.9760287048798157,-3.976028704879814,143.73780505247962
312.9761904761905,285.84183190514534,-3.748579789866865,-3.7485797898668634,144.02747671475905
312.32142857142856,286.29260535163417,-4.10816982709259,-4.108169827092589,144.03756988033533
311.6666666666667,284.8285381692142,-3.402591063124509,-3.4025910631245084,144.8655820496363
311.01190476190476,285.3832264891842,-3.5971460012792327,-3.5971460012792336,145.0857437388485
310.35714285714283,284.5815989804829,-3.919822998165574,-3.919822998165577,145.25235194763195
309.70238095238096,284.18181298163915,-3.511132669607983,-3.5111326696079863,145.49939623423737
309.04761904761904,284.4829399364206,-4.085251245759333,-4.085251245759334,146.49353216804562
308.39285714285717,284.10170951530705,-3.465451176234311,-3.465451176234308,146.34071935863903
307.73809523809524,284.11705726355405,-3.4564204992037117,-3.456420499203714,146.51547374623868
307.0833333333333,283.86636566034196,-3.5050393391227233,-3.50503933912272,146.55434230525628
306.42857142857144,283.8028582994376,-3.507953557385274,-3.507953557385272,148.10988435014758
305.7738095238095,283.7824171373373,-2.6947631030747656,-2.694763103074766,147.75705753251611
305.1190476190476,283.4305997635495,-3.2785218533499254,-3.2785218533499263,148.5882613047699
304.4642857142857,283.54602133117027,-2.7197076726085365,-2.7197076726085374,148.35751042779353
303.8095238095238,283.183745253176,-2.831518984750779,-2.8315189847507805,148.9732222594325
303.1547619047619,282.8121473877897,-3.078584150809805,-3.078584150809804,149.6729880290106
302.5,282.76945691970644,-1.8730062485540508,-1.8730062485540508,149.6630262367266
301.8452380952381,282.0464146311058,-2.934824253616753,-2.934824253616756,149.11489715253109
301.1904761904762,281.9543384170211,-2.827864709497489,-2.827864709497489,150.60280183134736
300.5357142857143,282.609735066806,-2.9408630400945555,-2.940863040094558,150.54379675289974
299.88095238095235,281.51617777898093,-3.187383293238969,-3.1873832932389665,151.50361998619246
299.2261904761905,281.6560184972597,-2.9615939180509634,-2.961593918050965,151.80378395406103
298.57142857142856,281.18078303324995,-2.486331142537108,-2.4863311425371104,151.48727423097165
297.9166666666667,281.45042707077044,-2.5434621661643804,-2.5434621661643826,151.0116112532562
297.26190476190476,281.0010867987192,-1.9735979288404972,-1.9735979288405,151.7596263770711
296.60714285714283,280.7913734889984,-2.0484570989569524,-2.0484570989569546,151.70748681250686
295.95238095238096,281.0588337161039,-1.696984056711473,-1.6969840567114722,152.19434388609105
295.29761904761904,280.6244061873774,-2.292803177067202,-2.292803177067202,153.3095353662531
294.64285714285717,280.171637241518,-2.4282883910214426,-2.428288391021444,153.64149603475124
293.98809523809524,279.3646508501339,-2.065678532131069,-2.0656785321310682,153.63562497380792
293.3333333333333,279.803149894311,-2.449869623211803,-2.4498696232118022,153.0895890475092
292.67857142857144,280.6716342781117,-2.694652552261419,-2.6946525522614175,153.93115640881308
292.0238095238095,279.5845103852458,-2.045221502218833,-2.045221502218833,154.71161684093852
291.3690476190476,278.8083927335983,-2.201173252490836,-2.2011732524908405,154.7340062503346
290.7142857142857,279.6828456073916,-2.4994425046330644,-2.499442504633063,154.86286181490541
290.0595238095238,279.104975492351,-2.1002119812834517,-2.1002119812834485,156.19194920295126
289.4047619047619,279.54220715984593,-1.9497252035587316,-1.9497252035587331,156.46642585533544
288.75,279.4519377266442,-1.9728885645058993,-1.9728885645058976,156.30807223117498
288.0952380952381,278.9961554150475,-1.5085173932825053,-1.5085173932825042,156.38318478386978
287.4404761904762,278.3966771874187,-1.6384165265411206,-1.6384165265411237,156.52480688706552
286.7857142857143,278.5678066099873,-1.9048834111507562,-1.9048834111507562,157.91141287023163
286.13095238095235,278.6477071556037,-1.7486138768087578,-1.7486138768087554,158.42670733636692
285.4761904761905,278.24083912682147,-1.2792439077383182,-1.2792439077383186,158.24933331132868
284.82142857142856,278.06071507364226,-2.2114788721988936,-2.211478872198892,158.43125981608117
284.1666666666667,277.7670269636486,-1.8897289405635203,-1.8897289405635178,158.70439989328435
283.51190476190476,277.5780217387712,-1.6173971054542193,-1.6173971054542184,160.1359403454533
282.85714285714283,277.63067611660074,-2.120778285030045,-2.1207782850300445,160.0571352705199
282.20238095238096,278.4168411393019,-1.6187051212224952,-1.6187051212224952,160.47519898475022
281.54761904761904,278.34464027986627,-0.9907451852861174,-0.9907451852861174,160.74486242040163
280.89285714285717,278.2277319598569,-1.2141196943132768,-1.2141196943132753,160.13582971626863
280.23809523809524,277.2948854143458,-0.9406827495508191,-0.9406827495508208,161.82910048204613
279.5833333333333,275.8357734047255,-1.2059201397277735,-1.2059201397277772,160.1541662580205
278.92857142857144,275.43095827508864,-1.1858132401026231,-1.185813240102623,160.0025127923375
278.2738095238095,275.38004329577075,-0.3467437754528609,-0.34674377545285934,161.01183846711336
277.6190476190476,274.9306967446228,-1.5167608907142125,-1.5167608907142143,161.45059133216805
276.9642857142857,274.95929075419934,-0.20245594065577907,-0.20245594065577718,162.25465789774034
276.3095238095238,274.1436762596184,-0.8348650186081069,-0.8348650186081068,163.04802947887615
275.6547619047619,274.5741499909882,-1.3751141939906741,-1.3751141939906757,162.1671865707392
275.0,274.76493724691767,-1.6611877545628524,-1.6611877545628528,163.35413139438322
274.3452380952381,274.6911503447005,-0.7372294529802335,-0.7372294529802322,163.2221919632465
273.6904761904762,274.3750833206978,-0.9189203112648227,-0.9189203112648242,163.50288166917653
273.0357142857143,273.55088261160864,-0.7780791461801622,-0.7780791461801618,163.99240518419037
272.38095238095235,274.1516074979165,-1.0708231939046287,-1.0708231939046289,163.74975889072928
271.7261904761905,273.2745621547342,-0.8260015999785488,-0.8260015999785493,164.3571765996678
271.07142857142856,273.2775131864062,-1.3632873463097963,-1.3632873463097972,164.8432881841076
270.4166666666667,273.2455467086105,-0.7964454598516567,-0.796445459851654,164.55540631043763
269.76190476190476,273.01815817201316,-0.9165180993420654,-0.9165180993420644,165.15415596425248
269.10714285714283,272.41548599791975,-0.9576337007805248,-0.9576337007805248,164.81052470079382
268.45238095238096,272.85825961806074,-1.1477812331424577,-1.1477812331424577,165.66106943135125
267.79761904761904,272.7963525598298,-0.9923700572335701,-0.9923700572335706,165.80014996319613
267.14285714285717,272.87142621201303,-0.8844588112201741,-0.8844588112201724,166.13788522542103
266.48809523809524,272.36282121139095,-0.7846539705371911,-0.7846539705371924,166.37809991696014
265.8333333333333,272.4354294795903,-0.3301549366273272,-0.33015493662732653,167.533400508916
265.17857142857144,271.4296922918357,-0.5077542352402317,-0.5077542352402276,166.73619963305964
264.5238095238095,271.304571720578,-0.05787323839269136,-0.05787323839269272,167.97973156466875
263.8690476190476,271.2649296447649,-0.542585920359611,-0.5425859203596111,167.49711040487546
263.2142857142857,270.64482007945423,-0.4868748891355501,-0.4868748891355515,167.98809546100122
262.5595238095238,270.2386830904498,-0.47797036366461376,-0.4779703636646183,168.37274952424568
261.9047619047619,270.81551075944117,-0.7288177720192762,-0.7288177720192772,168.34123314774308
261.25,270.54607290229444,-0.6405907004208458,-0.6405907004208443,168.79368673722706
260.5952380952381,270.6581434990894,-0.5727036704947323,-0.572703670494734,168.60375664000955
259.9404761904762,270.2495487070051,-0.8848976224892002,-0.8848976224892026,169.2042323174754
259.2857142857143,270.26932977255245,-0.47494308973933075,-0.4749430897393271,170.13476393799075
258.63095238095235,270.0278361307844,-0.5629480788718996,-0.5629480788719002,170.35125212580922
257.9761904761905,269.53151218854276,-0.43963425015887936,-0.4396342501588803,170.7367956495091
257.32142857142856,269.09680058161416,0.2171599789956363,0.2171599789956383,170.6073234856132
256.6666666666667,268.8133579425584,-0.58773250111738,-0.5877325011173794,171.00075967395753
256.01190476190476,265.5941501219764,0.22528635681621542,0.22528635681621845,176.13847614072085
255.35714285714283,265.8304003499309,0.36810891841055465,0.3681089184105532,176.81055105970003
254.70238095238096,264.6368857019655,0.5651372136729866,0.5651372136729852,175.6394624227048
254.04761904761904,264.8372820057279,0.23993244199284408,0.2399324419928435,175.81582604578986
253.39285714285717,264.00712680406895,1.0411075380766797,1.0411075380766797,174.97995152481357
252.73809523809524,263.9419998755976,0.027687449113179104,0.02768744911317719,175.4721568036517
252.08333333333331,262.4792081221015,-0.17710717821193708,-0.17710717821193647,174.87093732223474
251.42857142857144,261.97355748202557,0.08589219685331483,0.08589219685331345,174.63037685088983
250.77380952380952,260.27872596794657,0.5113133624725411,0.5113133624725399,173.95023363655739
250.1190476190476,259.60782147574133,0.4105117853889612,0.4105117853889625,173.301031097262
249.46428571428572,261.5896879900185,0.7753633864334128,0.775363386433415,175.51053335197534
248.8095238095238,261.0259019172601,-0.11130146149067696,-0.1113014614906746,175.56542003502415
248.15476190476193,261.12008903389443,-0.1797805797161251,-0.17978057971612654,176.33775609392166
247.5,261.55431291397275,0.9608934089394514,0.9608934089394514,175.9012062829741
246.84523809523807,259.9187088985805,0.05999146758835452,0.05999146758835502,176.82659298389103
246.1904761904762,260.5577624533798,0.3657480632938963,0.36574806329389636,175.9779076462178
245.53571428571428,260.7586174912184,0.35696053265829686,0.3569605326583018,176.3034762975232
244.88095238095235,259.752169999441,0.1046237009726058,0.10462370097260605,177.71966119547528
244.22619047619048,260.38931307870126,1.279780640475341,1.2797806404753416,177.1907850192124
243.57142857142856,260.00374184488527,-0.036207023886247,-0.03620702388624709,176.8057547276218
242.91666666666669,259.46990875419544,0.6118695353656308,0.6118695353656304,178.63432932652097
242.26190476190476,260.31651736258345,0.7571943129443796,0.7571943129443772,178.4517548218602
241.60714285714283,260.1476378898922,1.461956957053991,1.4619569570539876,178.11845698025894
240.95238095238096,259.5960594395877,1.1687313593766104,1.168731359376608,178.47400237884975
240.29761904761904,259.43032968878987,0.8118943180943814,0.8118943180943814,178.10403131860622
239.64285714285717,259.5207805395724,0.634829862190651,0.6348298621906489,179.2974907139367
238.98809523809524,258.4217622133555,0.7812313246070192,0.7812313246070196,178.23835878027447
238.33333333333331,256.96804098513536,0.2982779555764971,0.29827795557649806,179.21468987509178
237.67857142857144,257.39216779047,0.27610784932995236,0.2761078493299531,179.65316224137186
237.02380952380952,258.0293086195769,1.029281248052735,1.0292812480527365,179.89864815802608
236.3690476190476,258.2474194335513,0.6838872134111832,0.6838872134111825,180.50998309241686
235.71428571428572,257.7925282546734,0.9502918797304872,0.9502918797304861,180.19724260105303
235.0595238095238,257.2814929397787,0.792257789354115,0.7922577893541131,181.0313912639334
234.40476190476193,256.75949909593334,0.654180276060522,0.6541802760605263,181.5895519396315
233.75,258.09942508092894,0.2538932645645907,0.2538932645645902,180.61418400612376
233.09523809523807,257.3036737496864,0.4861572332565203,0.48615723325652305,181.55081485892592
232.4404761904762,257.87231046727607,1.5997866755348735,1.5997866755348749,182.21997880784286
231.78571428571428,256.094745206174,0.8829330331462937,0.882933033146295,182.1463537746778
231.13095238095235,258.0580689846517,-0.1770149872997628,-0.17701498729976345,182.6202661840122
230.47619047619048,257.66879463784153,0.3914181345594684,0.3914181345594689,183.18535660341558
229.82142857142856,257.50089569675225,0.7621201073602586,0.7621201073602586,184.40235039132753
229.16666666666669,257.69302087803845,0.9430890663444362,0.9430890663444365,184.36976357548284
228.51190476190476,258.3580107253717,1.0859935304698265,1.0859935304698294,185.5001040619157
227.85714285714283,256.75155017944536,1.2570988506580958,1.2570988506580967,184.07845034716124
227.20238095238096,256.02083731738884,0.9132522075722247,0.913252207572226,184.46083058153772
226.54761904761904,257.3077105753464,0.2551091331107954,0.2551091331107936,185.52749234682352
225.89285714285717,257.6634355946314,1.063816739597143,1.0638167395971463,185.60898798267115
225.23809523809524,257.24689342502444,1.0050828933465201,1.0050828933465172,184.73952916339704
224.58333333333331,257.27883803563293,0.678976988149217,0.6789769881492169,185.6776900437025
223.92857142857144,257.2779847277286,0.7748916166473332,0.7748916166473342,185.7853351401813
223.27380952380952,256.64196125567247,0.6233989492445294,0.623398949244528,186.23265770383725
222.6190476190476,255.49748411949167,0.4690052568254096,0.4690052568254073,186.26515375458413
221.96428571428572,256.2650423425836,-0.053235137825830545,-0.05323513782583322,187.08846327281194
221.3095238095238,255.33354958052124,1.046709435503508,1.0467094355035094,186.33634027757356
220.65476190476193,256.84529301497963,0.8466146620828413,0.846614662082839,186.57169151146203
220.0,255.892974069474,1.2635032846054854,1.2635032846054854,186.61269055357047
219.34523809523807,255.71324872398347,1.095258222579275,1.0952582225792746,187.68421895874468
218.6904761904762,255.3676636402863,1.1534812367042255,1.1534812367042213,187.7503712072313
218.03571428571428,256.2325790084129,0.6153817308403363,0.6153817308403358,188.7179917499524
217.38095238095235,253.19116019189914,1.6700956305580643,1.6700956305580639,185.78955196573557
216.72619047619048,253.65122476726341,1.6263019948309394,1.6263019948309405,186.47221382260088
216.07142857142856,253.68347454360665,1.6939349355232762,1.6939349355232791,187.15670790287854
215.41666666666669,252.6798596084302,1.5706827427826204,1.5706827427826238,186.64326826069183
214.76190476190476,253.36588811510828,1.0848967220132328,1.0848967220132335,186.7261313738597
214.10714285714283,253.88916882243151,1.5224145620425664,1.522414562042567,187.47247247947365
213.45238095238096,253.27997333370084,1.5867891783002472,1.5867891783002472,187.0255314661312
212.79761904761904,252.91075998989862,1.7880443010650873,1.7880443010650882,186.59127828187772
212.14285714285717,252.99019812583663,1.4929634449664753,1.4929634449664735,186.86654178060604
211.48809523809524,252.88503750180092,1.7735683252742114,1.7735683252742118,187.32040385545568
210.83333333333331,252.36753645630557,1.5257649003486702,1.5257649003486726,186.7781500384495
210.17857142857144,251.50126659073243,1.1524460781849466,1.1524460781849468,187.3646322886352
209.52380952380952,253.31224586241436,2.0866523343960677,2.086652334396067,189.11453472632311
208.8690476190476,253.51663966399317,1.0090587055804843,1.0090587055804843,189.01443752742128
208.21428571428572,252.17288396270456,1.336660773674103,1.3366607736741012,188.0878163910726
207.5595238095238,252.12338683991868,1.2878762222162745,1.287876222216274,188.37064355081208
206.90476190476193,251.48813900977072,1.3929393688241793,1.3929393688241776,188.49624354546953
206.25,251.40875026278886,1.2237554274427023,1.2237554274427054,188.59440112418153
205.59523809523807,251.54835162690344,1.2967590173845185,1.2967590173845185,189.23698259145073
204.9404761904762,252.00639495458415,1.4650942207720186,1.4650942207720192,188.84025822210972
204.28571428571428,251.3772873063095,1.3194705080380724,1.3194705080380695,189.6521873693512
203.63095238095235,251.28001028617382,1.4870284309525275,1.4870284309525301,189.3848787666448
202.97619047619048,251.3597361646802,0.9213265518918997,0.9213265518919012,188.07706771738083
202.32142857142856,251.75510908287166,0.7017116890722007,0.7017116890722012,189.05298055984613
201.66666666666669,251.56699353717028,1.0988115089686545,1.0988115089686559,189.9964178118223
201.01190476190476,252.0330091439898,0.41349089206001366,0.4134908920600141,190.730753183788
200.35714285714283,252.5054331036516,1.648496280649636,1.6484962806496366,190.90634402664836
199.70238095238096,252.2649881161057,0.4928601520774977,0.4928601520774968,190.26466591484248
199.04761904761904,249.0698161966277,1.8402039922641384,1.8402039922641364,188.7525875517511
198.39285714285717,249.36292881249577,2.255282014549796,2.255282014549795,187.77640263811523
197.73809523809524,248.203712619464,1.7591570670739933,1.7591570670739942,189.06001277316884
197.08333333333331,248.11074780283388,1.8902207903162926,1.8902207903162926,188.5162579608469
196.42857142857144,247.92860832182265,1.2583417000673074,1.2583417000673094,188.4031331199867
195.77380952380952,248.38138249305334,1.428609579765686,1.4286095797656868,188.32129435164612
195.1190476190476,248.91982841129214,2.082822051053126,2.082822051053127,188.51619650675528
194.46428571428572,249.06056704147784,2.0693535771689455,2.0693535771689437,189.10587537473478
193.8095238095238,248.34447926640325,1.980934329192124,1.980934329192122,188.83353228484236
193.15476190476193,248.31510074626652,1.892159966108796,1.892159966108796,189.38905769488917
192.5,247.58917629975207,1.2150097851877233,1.2150097851877233,189.3246368114003
191.84523809523807,248.59434815119005,1.2531964430006284,1.253196443000625,188.8554995470017
191.1904761904762,250.8998249735891,0.3261092689017099,0.3261092689017058,190.83873342436848
190.53571428571428,250.08264238231433,1.8188204533712011,1.818820453371202,191.51659998750424
189.88095238095235,249.41596822461977,1.86992116297837,1.869921162978368,189.0207209662648
189.22619047619048,248.3128174590004,1.9243302847130284,1.9243302847130315,190.00636561676927
188.57142857142856,247.70210703599224,1.481131383903008,1.481131383903008,189.56702766766375
187.91666666666669,247.6001191159456,0.8246951095354189,0.8246951095354192,189.5466622065277
187.26190476190476,250.55673191435042,1.4378219918720392,1.437821991872038,191.9342999275731
186.60714285714283,253.3567492805901,1.006343216736494,1.006343216736495,194.51526974393636
185.95238095238096,253.54203805312417,1.262257710444585,1.2622577104445822,195.2219722883176
185.29761904761904,254.53147564183016,1.0479509532389908,1.0479509532389915,196.29881851740285
184.64285714285717,254.25202626374062,1.9284087018837013,1.9284087018836997,195.5174094366505
183.98809523809524,254.28686941980413,0.9075545910574229,0.9075545910574231,196.61303831758414
183.33333333333331,253.7274384323688,1.3616896615592602,1.3616896615592582,194.71053807888356
182.67857142857144,255.14225412836507,1.9962217654337264,1.996221765433726,195.16811996795735
182.02380952380952,254.72257570490729,0.2910394061057488,0.2910394061057522,196.2054746095196
181.3690476190476,254.4634314483009,1.2127802986999763,1.2127802986999776,196.09046745318838
180.71428571428572,255.64647362416883,1.2060888419232632,1.20608884192326,195.4955205329816
180.0595238095238,255.19781366881108,0.9515074581751157,0.9515074581751148,194.98251936816857
179.40476190476193,255.38465316710332,0.9139985161889232,0.9139985161889206,195.3590530311177
178.75,255.54799882933963,1.2877322761382595,1.2877322761382592,197.281141374271
178.09523809523807,256.40086642916765,0.9674511200270972,0.9674511200270981,198.3562114875999
177.4404761904762,258.42090526112503,0.6507560274413432,0.6507560274413449,198.97349699511554
176.78571428571428,258.4440521789655,0.06762719141114043,0.0676271914111413,198.80735808996855
176.13095238095235,258.0421292274748,0.9715761758996392,0.9715761758996405,197.6990404912935
175.47619047619048,258.31005093164106,0.4417765496432704,0.4417765496432687,197.6089000818548
174.82142857142856,256.8027704218267,1.0892886703683573,1.0892886703683573,197.3566072755237
174.16666666666669,255.882572207638,1.5674289236021157,1.567428923602114,197.39681761287662
173.51190476190476,253.3752081160975,2.0966129009435077,2.096612900943509,194.41773441160535
172.85714285714283,254.10125587464384,1.8406132731503613,1.8406132731503604,194.1876442847907
172.20238095238096,254.56138144615534,1.698486229742342,1.6984862297423449,194.91369107332554
171.54761904761904,253.95392725515586,1.7106898508986041,1.7106898508986041,194.4554412139936
170.89285714285717,255.18687500400839,1.3608141707752162,1.3608141707752148,196.14831760351655
170.23809523809524,255.2384264058078,2.4408231965103178,2.440823196510319,196.35214498913592
169.58333333333331,257.43789866714934,1.3382545840791422,1.3382545840791413,197.86738595071247
168.92857142857144,257.1041780648743,0.48176538244924194,0.4817653824492437,198.0883840489312
168.27380952380952,256.7510709971806,1.5548866640824606,1.5548866640824592,196.99554705288392
167.6190476190476,256.68453851210796,0.9949551469416077,0.9949551469416077,197.63514982146202
166.96428571428572,255.85732589838722,0.6076311494585765,0.6076311494585779,197.75218486053762
166.3095238095238,256.7338097991904,0.16584435604807687,0.16584435604807643,197.0771594315164
165.65476190476193,256.39652711725495,1.662358083553551,1.6623580835535519,196.56701117274312
165.0,256.9310385076428,1.0684866868500775,1.0684866868500749,196.425312789972
164.34523809523807,254.88743966343975,1.3229844196169471,1.3229844196169454,194.29517588000155
163.6904761904762,253.72228097591693,1.898412372102008,1.898412372102009,195.09999232138043
163.03571428571428,255.47203527673253,1.8770877956823928,1.8770877956823948,194.6492140889787
162.38095238095235,255.35761393994306,1.7870579755067326,1.7870579755067315,194.56386746571576
161.72619047619048,255.3221607308281,1.4829560860282542,1.4829560860282534,195.81603855514467
161.07142857142856,255.59530328378395,1.4740546975905837,1.4740546975905837,195.84753614592464
160.41666666666669,254.5081390003129,1.933803864389168,1.9338038643891684,194.3465501829793
159.76190476190476,255.67160093535705,2.0429364763191087,2.0429364763191074,194.67773762665462
159.10714285714283,255.3161306894988,1.6639132451626013,1.663913245162603,194.7780536788956
158.45238095238096,255.20746716165485,1.1376630935067829,1.137663093506782,195.9628943067453
157.79761904761904,255.9990249029558,2.406717080555575,2.4067170805555733,194.8741998074981
157.1428571428571,256.944772765316,2.0668713079083996,2.0668713079083996,195.76708005722946
156.48809523809524,256.5263130153124,1.1920402347278582,1.1920402347278554,194.913860109955
155.83333333333331,256.4400949835859,1.2324712929494732,1.2324712929494728,195.3178486345674
155.17857142857144,257.78592773221305,1.3855153826201922,1.3855153826201918,196.83139049543755
154.52380952380952,258.6003556663987,1.1472685570672347,1.1472685570672354,197.22104445692463
153.8690476190476,257.9928758460021,0.15461060332190413,0.15461060332190368,198.29976611823042
153.21428571428572,258.55292363276266,1.2005581238006664,1.2005581238006673,197.69200243479233
152.5595238095238,258.38166645660255,0.9646584797852161,0.964658479785217,197.97750370756324
151.90476190476193,258.08728612387614,0.8997440911848715,0.8997440911848711,197.67385952635084
151.25,256.5668637191837,1.1536322295396684,1.1536322295396697,196.59887292903812
150.59523809523807,257.6518978528697,0.8988381340758441,0.898838134075845,196.6476861576447
149.9404761904762,258.9189772101332,0.9367709601984063,0.936770960198407,197.63668288392248
149.28571428571428,258.81129648766057,0.5710527864076846,0.5710527864076851,197.34392881625988
148.63095238095235,262.4686019228727,1.422710580992391,1.422710580992391,201.16414983795224
147.97619047619048,262.00390838951256,1.8285313322815862,1.8285313322815862,202.7328722931311
147.32142857142856,265.1349833095438,1.2184174276203688,1.218417427620369,205.77904381382012
146.66666666666663,265.3601762719254,1.3268604914131201,1.3268604914131235,206.12003613619197
146.0119047619047,262.4818908660762,0.1520974471121695,0.15209744711217266,201.76086907098332
145.3571428571429,263.3076222633145,0.5130179273275632,0.513017927327563,202.25274117961789
144.70238095238096,255.5589029519239,2.4471541750160966,2.4471541750160966,193.69834327403683
144.04761904761904,256.5690696388084,2.8489092953851265,2.8489092953851247,193.90979307062517
143.3928571428571,255.9326207432315,2.060830615674564,2.0608306156745657,193.7635647726414
142.73809523809518,256.5404591822768,2.5262550777927335,2.5262550777927366,193.5512240651397
142.08333333333337,259.4575842692002,1.369512502131046,1.3695125021310446,198.65273182582558
141.42857142857144,260.69328086502526,1.344529809872671,1.3445298098726728,198.51714225163016
140.77380952380952,258.3867212879439,1.0565604948114076,1.0565604948114085,197.02928844844976
140.1190476190476,258.968265853428,2.0568903770436515,2.0568903770436533,195.59800455341502
139.46428571428567,260.36140199616847,0.8449065560784799,0.8449065560784799,198.1444660318165
138.80952380952385,260.3441895112488,1.178208944411887,1.178208944411887,198.36855401629617
138.15476190476193,260.53908769888665,0.6844491194119514,0.68444911941195,197.9235456357437
137.5,261.0155990848368,1.4937253551636602,1.4937253551636638,199.4947648120933
136.84523809523807,262.0299630004864,0.0994028440409624,0.09940284404096111,199.58835112962367
136.19047619047615,262.4304028147586,0.8026428955766679,0.8026428955766668,199.93109535851286
135.53571428571433,264.9834000696736,1.105127422535325,1.1051274225353276,203.47061481250262
134.8809523809524,265.0757047574341,0.956103087169662,0.9561030871696611,204.66982062136924
134.22619047619048,265.9228455870216,1.39478999195623,1.39478999195623,205.02625954853374
133.57142857142856,265.8114006239091,0.9329313907121795,0.9329313907121791,204.56055376672077
132.91666666666663,264.832279779056,0.728011124147083,0.7280111241470839,203.03002020857457
132.2619047619047,264.7403479391401,0.6596093590004155,0.6596093590004147,202.31424785549444
131.6071428571429,266.21086682213945,0.9989545099069331,0.9989545099069307,204.55051842940807
130.95238095238096,266.5004923676205,1.1631727853386435,1.163172785338642,204.74645003496127
130.29761904761904,264.83015478909266,0.5169586493743978,0.5169586493744004,203.9835499895468
129.6428571428571,264.7947650385137,1.1156761263941888,1.1156761263941883,202.3680541926347
128.98809523809518,264.14687192389727,1.5180421303133058,1.5180421303133076,201.96573221935628
128.33333333333337,263.88719073014187,1.129441744283912,1.1294417442839129,200.890110181765
127.67857142857144,262.1863560276513,0.9571565676385001,0.9571565676385004,199.05446155962835
127.02380952380952,262.09117145619615,1.1246612126324536,1.1246612126324527,198.42902746271088
126.36904761904759,260.69200084949557,1.449397853208458,1.4493978532084553,197.37321671722648
125.71428571428567,261.01054760771734,1.7672828552686046,1.767282855268605,197.26300656881577
125.05952380952385,260.1007561800551,2.002995688546008,2.0029956885460067,196.75863521592998
124.40476190476193,260.1523231758466,1.795840910663703,1.7958409106637083,195.3732891114595
123.75,262.2258492044369,1.6142592133699256,1.614259213369924,198.70609102498742
123.09523809523807,262.853462868196,1.7337159794666477,1.7337159794666486,199.28661887386343
122.44047619047615,260.31841925698353,1.4581076636785475,1.4581076636785484,196.8029834488043
121.78571428571433,260.78947383671226,1.9965567118055096,1.9965567118055088,197.39443009365954
121.13095238095241,259.6072892308307,2.221881032900173,2.221881032900172,195.9326637007367
120.47619047619048,259.4858879178744,2.3178338529674605,2.3178338529674587,195.06961593322058
119.82142857142856,259.73519429989784,1.5781386635800774,1.578138663580078,195.71949334854133
119.16666666666663,259.21502013318985,1.8462060319428242,1.8462060319428233,195.2479845148571
118.5119047619047,259.218179932716,3.0214323989267684,3.0214323989267697,195.2113855730057
117.85714285714289,259.3377269874512,2.0926524300662575,2.0926524300662583,194.6787445265867
117.20238095238096,260.99836513986185,1.4271443542078597,1.4271443542078601,196.49595001882975
116.54761904761904,261.18141507183543,1.776675308349465,1.776675308349466,197.31021122661372
115.89285714285711,261.1514181910394,1.4779261012781517,1.4779261012781526,196.57495521511606
115.23809523809518,261.82881003531196,1.1566385026311325,1.156638502631133,196.77523215701794
114.58333333333337,262.1636321663615,0.7524786590206839,0.7524786590206852,197.2066490187929
113.92857142857144,262.2953077208611,0.9439444688367504,0.9439444688367502,197.371899841574
113.27380952380952,261.98206099524504,1.3257334452882008,1.325733445288199,197.31333070291836
112.61904761904759,261.76483876560826,1.0556933458432294,1.055693345843229,197.5422974630711
111.96428571428567,262.44533265913185,1.5162990057644072,1.5162990057644081,197.97366043775568
111.30952380952385,262.4268580106735,0.6623687193019414,0.6623687193019383,197.7367953156694
110.65476190476193,262.35215606472764,1.0200505363351273,1.0200505363351278,197.61052429100815
110.0,262.18154813459375,1.1592204640529602,1.159220464052961,197.08496954354808
109.34523809523807,264.8278887411226,0.476143524459112,0.4761435244591133,200.8902749437665
108.69047619047615,265.07466290191974,0.49445958975370485,0.49445958975370474,201.51704743787062
108.03571428571433,266.3408874151884,0.758801569501823,0.7588015695018225,202.1588768232665
107.38095238095241,266.606913954898,1.6519432144259496,1.6519432144259472,203.54694624537166
106.72619047619048,267.00408810006354,0.9472470717410755,0.9472470717410738,203.4353006207599
106.07142857142856,266.58653852316877,0.5421160153958049,0.5421160153958061,203.74035737721823
105.41666666666663,267.3402534103007,0.29267085679370886,0.29267085679370725,203.3258089043045
104.7619047619047,266.61392250371745,0.7295637924853006,0.7295637924853022,204.51162717042112
104.10714285714289,267.24800458245346,0.5362213382150826,0.536221338215083,204.18551864902412
103.45238095238096,267.15715371302906,0.33760188327299673,0.3376018832729947,203.72156419109245
102.79761904761904,267.90658717829575,1.5637414502438187,1.5637414502438176,204.101326857303
102.14285714285711,267.5752083550253,1.4478506616409075,1.447850661640905,204.69742125467053
101.48809523809518,267.86568679190424,1.3476075376644034,1.3476075376644019,204.5415612841897
100.83333333333337,267.4717257874162,1.524569799238643,1.5245697992386447,204.3363604534617
100.17857142857144,267.9481030040023,1.8198565399499431,1.8198565399499438,204.52031566470993
99.52380952380952,267.904044035111,1.104159611668814,1.104159611668817,204.36679958466334
98.86904761904759,266.9471195714885,1.1326846376766129,1.1326846376766129,202.58952256512376
98.21428571428567,267.5184353214388,1.198562086622484,1.1985620866224849,202.5941794514852
97.55952380952385,267.49263051387584,1.274947583486219,1.2749475834862198,203.09333855240237
96.90476190476193,267.3569884691642,1.65666018083314,1.6566601808331416,203.29127169726976
96.25,266.6233702726291,0.9909688306228297,0.9909688306228273,202.4182982468206
95.59523809523807,266.1298837456612,0.5360591154069878,0.5360591154069899,201.6335217956016
94.94047619047615,263.3114910620062,1.6555793132102166,1.655579313210217,196.5976968750226
94.28571428571433,261.9945275998843,2.253464699679761,2.25346469967976,195.09547522222164
93.63095238095241,258.262046590901,2.4032205598476213,2.403220559847623,191.50717683917725
92.97619047619048,259.1066362177311,2.0129282036459197,2.0129282036459206,191.8053396830208
92.32142857142856,261.07568514020005,2.1421318605952395,2.1421318605952417,195.4737765497442
91.66666666666663,262.2196998608108,1.311297690189897,1.3112976901898974,196.2758746664943
91.0119047619047,263.30088563319305,1.7661791663133486,1.766179166313348,197.3649638374956
90.35714285714289,264.86658765123457,1.4559408664772138,1.455940866477211,198.4401927815502
89.70238095238096,265.7369935313993,1.0643773487042256,1.0643773487042256,199.85084811020022
89.04761904761904,265.98374844570526,1.2251496535909345,1.2251496535909336,200.8513136605454
88.39285714285711,266.2323440700455,1.501148561868875,1.501148561868875,202.60972731050063
87.73809523809518,267.4653690115317,0.83998280316513,0.8399828031651307,201.60188363996502
87.08333333333337,266.8131374594715,1.3212207619290317,1.32122076192903,201.99380314720096
86.42857142857144,267.9216528817535,1.1048421689455983,1.1048421689455992,201.9270361777522
85.77380952380952,268.6360226108598,1.297689242255197,1.297689242255197,203.9095046099279
85.11904761904759,268.2938033672663,1.4989859461931268,1.4989859461931263,203.45261996187713
84.46428571428567,268.9259246712311,2.194504856279503,2.194504856279502,205.81032729096836
83.80952380952385,269.24738581491533,1.4936394883670503,1.4936394883670512,204.63718422977487
83.15476190476193,269.5723785380582,1.3667406832533975,1.3667406832533984,204.29523051314445
82.5,270.6785033393343,1.3303693008425383,1.330369300842536,204.13798298909134
81.84523809523807,269.579311888704,1.9275961100035757,1.9275961100035768,204.90294840894387
81.19047619047615,269.18991466302214,1.652565082161208,1.6525650821612075,204.4817656668669
80.53571428571433,269.4710949231574,1.8541941887682991,1.8541941887682987,204.38999454604692
79.88095238095241,269.2175098423495,1.5107710797644323,1.5107710797644291,204.2207789864622
79.22619047619048,268.653646850765,1.7986388018772996,1.7986388018772996,205.06673212583416
78.57142857142856,269.66676276374596,1.3989137066428383,1.3989137066428379,205.04484879116794
77.91666666666663,268.82346300910035,1.7898796201500005,1.7898796201499996,205.22930955752972
77.2619047619047,269.6955987526778,0.5910927578236422,0.5910927578236406,204.91365717247763
76.60714285714289,269.35322954242815,1.2115345565238467,1.2115345565238471,205.3045721754294
75.95238095238096,269.8215871945812,1.541573316735783,1.5415733167357806,205.58400553494027
75.29761904761904,271.2945763875885,1.9622577409808954,1.962257740980895,207.85939160173325
74.64285714285711,271.1363691632466,2.045257890891363,2.0452578908913632,207.35753805441186
73.98809523809518,271.42820196415965,1.5243732645748507,1.524373264574849,207.88694693757006
73.33333333333337,270.88731081923584,2.253111083384534,2.253111083384533,207.5442396576815
72.67857142857144,270.50700693088146,2.422329599906334,2.4223295999063317,206.75281937043937
72.02380952380952,270.94086823464727,2.2139443192612163,2.213944319261213,205.30817941673106
71.36904761904759,271.9385894218952,1.7293436863160063,1.7293436863160063,208.45985221827712
70.71428571428567,271.71371138056685,2.0619998392698706,2.061999839269868,207.23861689949712
70.05952380952385,271.75180582257116,1.4432755069406533,1.4432755069406573,207.805991018442
69.40476190476193,271.6571799974553,1.684682190440563,1.6846821904405624,208.3040890289449
68.75,271.0681658712447,1.1356144117239848,1.1356144117239848,206.12677418460945
68.09523809523807,271.5788287915904,1.2403834150137014,1.2403834150137019,205.63078672676522
67.44047619047615,271.20862517910473,1.8660545537860287,1.8660545537860287,206.4814875400169
66.78571428571433,271.5083825942781,1.4606345035572186,1.4606345035572195,206.50112473134294
66.13095238095241,271.6743500148849,1.94546474201451,1.9454647420145106,205.95120702473537
65.47619047619048,271.4826343617786,2.155740592713223,2.155740592713221,206.4987153763218
64.82142857142856,271.0839982397434,1.5715999192758563,1.5715999192758572,205.9704177268125
64.16666666666663,270.9849552511535,1.8952997105582483,1.8952997105582503,205.6263740322107
63.5119047619047,270.81672180076737,1.7882653766542471,1.788265376654244,206.09740854279895
62.85714285714289,271.66997765138984,1.6388826650292487,1.6388826650292492,205.40525035968105
62.20238095238096,271.83843327781517,1.5435501745504419,1.5435501745504434,206.3778600117954
61.54761904761904,270.30982808874325,1.0747770481342147,1.0747770481342152,206.21534872118502
60.89285714285711,271.85913832726595,1.6578982787160823,1.6578982787160808,205.76136477020228
60.238095238095184,271.5634383302884,1.0350972693906075,1.0350972693906082,205.2520712434186
59.58333333333337,271.62469253093644,1.5483216391802799,1.5483216391802814,205.340548380682
58.928571428571445,271.33507427572465,1.5110572296902973,1.5110572296902993,206.48096770246534
58.27380952380952,271.2249435826568,1.0106414990361876,1.010641499036188,205.15843959417137
57.61904761904759,270.50545185139225,1.6378742652942906,1.6378742652942937,204.5907011557045
56.964285714285666,270.8639509534591,1.5506420187006567,1.5506420187006578,203.44146003471684
56.30952380952385,269.8466363407432,1.6591878679724774,1.6591878679724774,203.79852708636966
55.654761904761926,270.3788902240785,2.665896722144157,2.665896722144154,204.86186222367903
55.0,270.0946584619372,1.4433844613791915,1.4433844613791915,203.75957083901713
54.345238095238074,270.5341995319966,1.833245493945257,1.833245493945256,203.90007826492078
53.69047619047615,271.0381894336345,1.5176399716214877,1.5176399716214903,203.77583631915567
53.035714285714334,270.7024641112899,1.6119781120173915,1.6119781120173915,204.14393330209742
52.38095238095241,271.28246457943726,1.240621961634599,1.2406219616345984,204.6086085548636
51.72619047619048,270.8446789004733,1.1217579416421284,1.1217579416421275,205.45495857368147
51.071428571428555,270.45715329950826,1.681953630397516,1.6819536303975144,205.15973581769723
50.41666666666663,271.50680164165243,1.9177925375081766,1.9177925375081766,204.8569020526229
49.7619047619047,270.9316579542814,1.2728675697076803,1.272867569707682,204.6605613701544
49.10714285714289,270.9583611406301,1.6433064004505094,1.6433064004505085,203.71851228667043
48.45238095238096,271.49139422230877,1.6993021373234396,1.6993021373234405,205.4489519987835
47.79761904761904,271.07914510439787,1.5244018983201335,1.524401898320134,205.04095310838082
47.14285714285711,270.9593494986364,1.5924812531855654,1.5924812531855652,204.240543491625
46.488095238095184,271.426132147321,1.297123455911365,1.2971234559113674,205.17529686122583
45.83333333333337,271.7088823386553,1.5660208510402256,1.5660208510402287,204.8849351206627
45.178571428571445,271.8000582494893,1.9570254367529312,1.9570254367529327,204.99060934498274
44.52380952380952,271.3463542633592,1.7379800943231207,1.7379800943231218,204.76419914219636
43.86904761904759,271.5166742780233,1.7647457201225316,1.7647457201225276,205.8525574174626
43.214285714285666,271.47113014967067,2.02179010071946,2.021790100719459,204.51082439032916
42.55952380952385,272.16306589064783,1.556885799437017,1.556885799437017,204.8844718841838
41.904761904761926,272.21680289521026,2.6157573681063737,2.615757368106372,205.3205404418073
41.25,271.11467695699724,2.1519240600007543,2.1519240600007525,204.92436783577583
40.595238095238074,271.8766416597316,1.870937519913445,1.8709375199134475,205.10549034252378
39.94047619047615,272.11977328252414,1.7005806434594157,1.700580643459414,204.78047972074887
39.285714285714334,272.61946860037875,2.4130594434833834,2.4130594434833834,205.72883877132202
38.63095238095241,271.6938233909255,2.3358769241705413,2.3358769241705404,204.80595969128413
37.97619047619048,272.50325506129417,1.3333444269481987,1.3333444269482002,204.61042626226774
37.321428571428555,271.82919318554946,1.4552122484127412,1.4552122484127403,205.07044804558882
36.66666666666663,271.898503438816,2.1141763946014804,2.1141763946014804,204.44759021096692
36.0119047619047,271.9487317475738,1.3040809215657878,1.3040809215657878,205.61593676754518
35.35714285714289,272.5159767935457,1.8401103249408977,1.8401103249408994,205.29254314160553
34.70238095238096,272.55328714521517,1.5556982995448088,1.5556982995448094,205.1572408210908
34.04761904761904,272.7829816501405,1.6988700658372564,1.698870065837254,205.20317190726786
33.39285714285711,274.41162036078583,2.055069745736932,2.0550697457369336,210.41079372502514
32.738095238095184,275.07530361505064,1.7572295685386867,1.7572295685386852,210.3426613098415
32.08333333333337,276.2604045700154,1.9742095687635153,1.9742095687635166,211.75223343322966
31.428571428571445,276.15018164195936,1.6192227418946987,1.6192227418946972,211.7321433799597
30.77380952380952,275.0978891963306,1.3633468769223986,1.3633468769224002,211.18488921996016
30.119047619047592,274.40039959980055,1.950179868422808,1.9501798684228095,209.8158236718558
29.464285714285666,274.1691564579859,2.1929459196076384,2.192945919607636,211.24476512616545
28.809523809523853,274.86018835504836,1.9537672371456136,1.953767237145613,210.79341955294868
28.154761904761926,275.0037143281551,2.2681163184518778,2.268116318451878,211.17639191800484
27.5,275.0636770044414,2.3640872511091016,2.3640872511090985,211.41678314106605
26.845238095238074,273.66296463973976,2.0914300659265153,2.091430065926513,208.2489899753247
26.190476190476147,274.81261758413405,1.4804399914878053,1.4804399914878037,208.34399679433366
25.535714285714334,275.0322965967053,2.3131605908130366,2.3131605908130375,207.10677786454735
24.880952380952408,274.08696054053746,2.6216231466862276,2.621623146686227,207.18853974524995
24.22619047619048,273.7295624396968,2.073221042859858,2.073221042859859,207.05173382824566
23.571428571428555,274.3692562893796,2.0756511949134815,2.0756511949134806,209.08197629204201
22.91666666666663,273.66252652916444,1.4355541987604887,1.4355541987604887,208.92871484650536
22.261904761904702,274.62640947428656,1.944732456621997,1.944732456621996,208.56661613009064
21.60714285714289,274.2747565859767,2.0486910600571178,2.0486910600571178,208.6914863055186
20.952380952380963,274.59682497474216,2.002456849029926,2.0024568490299246,208.21661416027774
20.297619047619037,273.1634605702082,1.8534206342349486,1.8534206342349466,205.72163121905746
19.64285714285711,272.94935320220566,1.1138514513240503,1.1138514513240496,205.6843264363445
18.988095238095184,272.87303982556045,2.0874899651189214,2.087489965118923,206.7560126561495
18.33333333333337,273.1086571242627,2.3877951921857634,2.3877951921857643,206.00451935182102
17.678571428571445,273.3171305192231,2.232533082480734,2.232533082480733,205.73201116455087
17.02380952380952,273.3642565491778,2.429237260544195,2.429237260544194,206.36601364852643
16.369047619047592,272.9658290679011,2.2012491680556274,2.2012491680556265,205.74448950914683
15.714285714285666,272.79289482119526,2.6484540885178034,2.6484540885178034,206.74890142820234
15.059523809523853,273.0562654015975,1.915814801286252,1.9158148012862544,206.0756396180803
14.404761904761926,273.1871172960138,2.6431226529390988,2.6431226529390983,205.97888452568148
13.75,273.0260505527377,2.6642118491925055,2.6642118491925064,206.46949954333
13.095238095238074,273.3533481231181,2.267710943059925,2.267710943059929,206.1797466978121
12.440476190476147,274.0747412294017,2.200089734981484,2.2000897349814834,208.9059256205276
11.785714285714334,274.50948808789286,2.3888232244852636,2.3888232244852636,208.18936402251418
11.130952380952408,275.4592272036154,2.285897341121207,2.2858973411212067,210.36725450996573
10.476190476190482,275.8221685136506,2.3285052111276534,2.3285052111276525,210.32550713155703
9.821428571428555,274.8528769966713,2.2781405506880463,2.2781405506880463,209.00649222004785
9.166666666666629,274.15551192391655,2.3246780839492747,2.3246780839492747,208.24316813456576
8.511904761904702,275.9280343805957,2.0408963537010956,2.040896353701097,210.93281955058202
7.85714285714289,275.42752421699606,1.3469883028191112,1.3469883028191123,210.92392031191744
7.202380952380963,275.70029172133485,2.756146611854028,2.756146611854028,210.84528175165386
6.547619047619037,275.67662847529874,2.589585463411314,2.589585463411313,210.6355232682901
5.89285714285711,275.40482100621375,2.0101848428521594,2.0101848428521607,211.67510349939332
5.238095238095184,275.7207364466521,2.3693099694741795,2.3693099694741786,210.16632336037597
4.583333333333371,275.59637136486987,2.7954437475174285,2.7954437475174303,211.5507867164208
3.928571428571445,275.42910360756406,2.2493359591111908,2.2493359591111926,211.41133775907196
3.2738095238095184,275.89404153641624,2.2068089444522756,2.2068089444522734,211.55686212241233
2.619047619047592,276.04682274271056,2.6254048930829654,2.6254048930829645,211.593684825481
1.9642857142856656,275.92256690142773,2.338434442679967,2.338434442679964,210.90578315799036
1.3095238095238528,275.71171924392365,1.982648339977332,1.9826483399773298,210.43418853940696
0.6547619047619264,275.8232040191281,2.353467138429979,2.35346713842998,211.33103234130783
0.0,275.517121115715,2.1945822310907706,2.194582231090769,211.40441831172757
