z in mm,sigma xx in mm2,sigma xy in mm2,ysigma yx in mm2,sigma yy in mm2
0.0,140.34417845807715,19.16873756316537,19.16873756316537,118.87457172088025
0.6534653465346535,139.9519272609648,18.80920840860882,18.80920840860882,118.77864237511186
1.306930693069307,140.0237089035122,19.0025528787167,19.002552878716706,118.79215844180855
1.9603960396039604,139.89926315469268,18.44378324898096,18.443783248980964,117.45327689280398
2.613861386138614,139.33194267175054,18.865865590976572,18.865865590976572,118.7990870641136
3.2673267326732676,138.97685313214507,18.586061625485755,18.586061625485755,118.69340989550975
3.9207920792079207,140.56288572450657,18.939803433977445,18.939803433977442,118.28139602808474
4.574257425742575,139.91642466040358,19.091003709865248,19.091003709865248,118.0459384140495
5.227722772277228,139.9549377050988,19.07578121022501,19.075781210225006,118.46777885444072
5.881188118811881,140.26976441510848,18.297592425191336,18.297592425191336,117.85062348033487
6.534653465346535,140.2117137004494,18.74932280565827,18.749322805658277,118.26740727581316
7.188118811881188,140.12119980184073,18.780933881240912,18.780933881240912,117.39717419510124
7.841584158415841,140.0491672526445,18.252373389205424,18.252373389205424,118.32083011440032
8.495049504950495,141.5117006049162,18.398860843126144,18.398860843126144,117.11199711244406
9.14851485148515,141.48033294147095,18.062000470106675,18.062000470106675,117.95477226970007
9.801980198019802,140.57994044618297,18.24989325609731,18.249893256097305,117.13272693874134
10.455445544554456,141.00411200403437,18.249729505632057,18.249729505632057,117.9469085295248
11.10891089108911,141.04477128702197,17.980537676011103,17.980537676011103,118.13604786035714
11.762376237623762,141.54576148447887,18.288706236829956,18.288706236829952,118.03867548977227
12.415841584158416,141.1872074150434,17.7051891007209,17.705189100720908,117.87507878098161
13.06930693069307,142.29798612819627,17.972019580516587,17.97201958051659,117.84693510553628
13.722772277227723,141.69549905604194,18.36148185599206,18.361481855992068,117.57958276232185
14.376237623762377,140.83345618488227,18.213802465075332,18.213802465075332,117.18366386777764
15.02970297029703,141.82686371983667,18.328049551593697,18.328049551593697,117.76303012243848
15.683168316831683,141.38999973744643,17.844781285851887,17.844781285851887,117.41621310721935
16.33663366336634,142.8101483063804,18.46200354508875,18.46200354508875,118.3739434725579
16.99009900990099,143.2492452548831,18.37522381093321,18.37522381093321,117.81326788073925
17.643564356435643,142.4509576236898,18.145024722384928,18.145024722384928,117.61961893976745
18.2970297029703,142.1015472086919,17.692909191828804,17.6929091918288,116.89973489993524
18.95049504950495,142.88264938106823,18.21966531535474,18.219665315354742,116.90451360291665
19.603960396039604,142.99851836964797,17.962611617235613,17.962611617235613,118.15813576346271
20.25742574257426,141.50232055272843,18.187464466012354,18.18746446601235,118.62805767001491
20.91089108910891,142.43531432425348,17.60921650607549,17.60921650607549,117.31535364347428
21.564356435643564,142.18751136321097,18.08077081724598,18.080770817245984,116.45748412398038
22.21782178217822,143.6787942887497,18.384837649586725,18.384837649586725,116.63145494450393
22.871287128712872,144.18923945587437,18.082310465232318,18.082310465232318,118.16609894713712
23.524752475247524,145.08342112499128,18.04641392843223,18.04641392843223,118.13368554487808
24.17821782178218,144.46917143438068,17.745441127498324,17.745441127498324,117.44300509792757
24.831683168316832,143.4524171736993,18.404583138396255,18.40458313839626,116.50300270037228
25.485148514851485,144.4146391448473,17.554335607475725,17.554335607475725,117.3270088072701
26.13861386138614,145.22140774005777,17.71964512786251,17.719645127862506,115.53728728621861
26.792079207920793,144.45804320676172,18.168414452877418,18.16841445287742,116.503905257505
27.445544554455445,144.1155940129174,17.826888126719112,17.826888126719112,115.9389738170615
28.0990099009901,144.4210649979712,18.289263181429426,18.289263181429426,116.01082638486146
28.752475247524753,144.8942093056856,17.502438336212528,17.502438336212528,116.68559293730613
29.405940594059405,145.12690825257283,17.538591363651516,17.538591363651516,117.31873383727947
30.05940594059406,145.72557702217097,17.492286448494312,17.49228644849431,116.81785917294671
30.712871287128714,145.68613956663197,17.625398396439763,17.625398396439767,117.30078552617901
31.366336633663366,144.50717556008908,17.41654674859713,17.416546748597135,115.70874322534503
32.01980198019802,146.58070831060257,17.528073798085956,17.528073798085956,116.5889775146484
32.67326732673268,147.13750647606437,17.06872733078936,17.068727330789358,117.02739743686406
33.32673267326733,145.42957117674916,18.00425840390928,18.004258403909283,116.40000724517684
33.98019801980198,145.74142264644965,17.685190150469655,17.685190150469655,115.96994931048935
34.633663366336634,145.42703027439026,17.825609771719186,17.825609771719186,115.98203734895895
35.28712871287129,146.51650484568668,16.967478116243637,16.96747811624363,116.2891675323244
35.94059405940594,146.19698376819167,17.322318808554517,17.322318808554517,117.22100790270511
36.5940594059406,146.78820023288745,17.50623006522609,17.50623006522609,116.59485775117716
37.24752475247525,145.04517360245003,16.733978990616926,16.733978990616926,115.71432773103602
37.9009900990099,145.99765293861802,16.877556899386093,16.877556899386086,116.39763235940876
38.554455445544555,146.94276706177467,17.484195558583988,17.484195558583988,116.29187949972841
39.20792079207921,146.90991532068483,17.220064098097293,17.2200640980973,117.04035749880923
39.86138613861386,146.41454462058985,17.39540561278697,17.39540561278697,115.48461780048669
40.51485148514852,144.9939371849621,17.244439619755724,17.244439619755724,115.03538793565389
41.16831683168317,145.94689509613872,16.72312660956258,16.72312660956258,114.80266403878043
41.82178217821782,145.9879960288903,16.413738607918248,16.413738607918248,115.7646314733953
42.475247524752476,146.62540523844888,17.2919054653984,17.2919054653984,115.9213353560576
43.12871287128713,147.18548716374676,17.092440967943244,17.092440967943244,116.23919578772065
43.78217821782179,147.05027152150527,17.578597348601146,17.57859734860115,116.19119166967525
44.43564356435644,146.11552250540342,17.131664857066706,17.13166485706671,114.71608580767935
45.08910891089109,148.20741479444536,16.96587584865309,16.96587584865309,116.33112485739129
45.742574257425744,147.70419348463463,17.000722960067193,17.000722960067193,115.87876487844069
46.396039603960396,147.4663960245984,17.16687344100772,17.166873441007723,115.2184198050639
47.04950495049505,148.55780714616313,16.91822605273597,16.91822605273597,115.99954594384815
47.70297029702971,147.68053509598494,16.96623765656602,16.966237656566022,116.78582321054613
48.35643564356436,146.71736074142126,16.581678617329533,16.581678617329537,115.96933646828862
49.00990099009901,147.5744870220724,16.13541784044423,16.135417840444223,115.20232695055023
49.663366336633665,147.740999970536,16.612924856312983,16.612924856312983,114.82495536671777
50.31683168316832,146.78080610736654,16.856561538203252,16.856561538203255,116.58764078605944
50.97029702970297,148.7609198835577,16.159958454854472,16.159958454854475,116.02398907917035
51.62376237623763,149.0304691087326,16.259369151014642,16.25936915101465,116.81927292676592
52.27722772277228,148.18381942263156,16.508924861570677,16.508924861570677,117.57130259759917
52.93069306930693,148.35278350748456,16.24926643098862,16.249266430988616,116.41773032532907
53.584158415841586,148.10115949915175,15.99468727425471,15.99468727425471,115.63827356623332
54.23762376237624,147.79959420709028,16.204727015384577,16.20472701538458,114.9995982039199
54.89108910891089,148.81717356583638,16.17659237589965,16.17659237589965,115.82788471630819
55.54455445544555,148.25644513110663,16.568862961497143,16.568862961497143,115.77183070476029
56.1980198019802,148.13186423196146,16.39461608041906,16.39461608041906,116.46195887858416
56.851485148514854,149.13783844353793,16.136394136673125,16.136394136673132,117.48184010043343
57.504950495049506,149.4461532223142,15.980086510843163,15.980086510843165,117.36503560497547
58.15841584158416,149.33602791069669,15.542665269367093,15.542665269367093,116.48570603805048
58.81188118811881,149.2419331989796,16.160479595606045,16.160479595606045,115.4806611939099
59.46534653465347,148.63687655118306,15.836122808686879,15.83612280868688,116.75326626109526
60.11881188118812,149.7333615567407,15.507442213017388,15.507442213017386,116.40275281517313
60.772277227722775,149.6819707802942,16.298819589646723,16.29881958964672,115.15276538409758
61.42574257425743,148.59278911990205,16.21183580207958,16.21183580207958,114.40232654927581
62.07920792079208,148.90863651570734,15.829252071418384,15.829252071418384,116.65177815174239
62.73267326732673,149.44748480492817,16.297383287787696,16.2973832877877,114.97965165601326
63.38613861386139,149.25371596244034,16.020560629722375,16.020560629722375,114.76723444210253
64.03960396039604,149.3155086773632,15.736046024142672,15.736046024142672,113.63971749420243
64.6930693069307,150.96982380520413,15.876170922380178,15.876170922380178,115.84855696606577
65.34653465346535,149.745834726642,15.957234320687428,15.957234320687434,115.29828677561908
66.0,151.23442073591676,15.909556529484362,15.909556529484366,114.66598174821279
66.65346534653466,151.46906301165808,15.681176850972872,15.68117685097287,115.18574150265
67.3069306930693,150.58995918767238,16.131814590858948,16.131814590858955,114.33955191132237
67.96039603960396,152.43082015869217,15.22348458651035,15.223484586510354,116.00936556744897
68.61386138613862,149.30114896785483,15.316592252381046,15.31659225238105,114.64593631999713
69.26732673267327,151.54733230157603,15.42284670953544,15.42284670953544,115.5983397905067
69.92079207920793,151.94158618358645,16.078041887234356,16.078041887234356,115.48505735332768
70.57425742574257,149.84221092345345,15.39348617435021,15.39348617435021,114.39116175687015
71.22772277227723,150.58692796833387,15.569598887387086,15.569598887387086,114.37779840281777
71.88118811881188,151.93258718904198,15.582548252829232,15.582548252829227,116.03790856364554
72.53465346534654,151.09487473823492,15.450815185634584,15.450815185634584,116.05313432208395
73.1881188118812,151.29315261083275,15.618374995357582,15.618374995357582,116.69752402487634
73.84158415841584,151.01012029037565,15.63327730239621,15.633277302396216,116.32638517534768
74.4950495049505,152.5400275758503,15.478526001548902,15.478526001548907,115.71688134291514
75.14851485148515,151.9354304997446,15.985922126531879,15.985922126531875,114.23136803468901
75.8019801980198,151.69599113610278,15.517344988704721,15.517344988704721,114.94654103291863
76.45544554455446,153.14763794284676,15.522456789880094,15.52245678988009,115.77455581387488
77.10891089108911,152.76315034368687,15.412928274138654,15.412928274138652,115.17764531234393
77.76237623762377,152.51521463815791,15.029656098074362,15.029656098074357,115.04472918410002
78.41584158415841,152.99556361624937,15.077468685569645,15.077468685569645,115.33362563825546
79.06930693069307,152.88697868572373,14.977036748174257,14.977036748174257,113.87729929475883
79.72277227722772,152.32043008378227,15.164166059518648,15.164166059518648,115.89113287541248
80.37623762376238,152.5398311795565,14.935432234174526,14.935432234174524,115.7037756751606
81.02970297029704,153.2710002667446,15.216359439822154,15.216359439822154,115.42936037321437
81.68316831683168,152.5525191056487,15.159501895843112,15.15950189584311,114.87279573578667
82.33663366336634,154.01834447544107,15.16637668352365,15.166376683523652,115.59359806689628
82.99009900990099,154.376074728335,14.753869107112061,14.753869107112061,115.12739986643693
83.64356435643565,153.770826353902,14.82108558342503,14.82108558342503,115.95771976195844
84.2970297029703,153.68332011944017,15.035588217011254,15.035588217011249,115.55567856362045
84.95049504950495,154.59066264153384,14.668176111504584,14.668176111504584,115.52825054727738
85.60396039603961,153.72481574564935,14.943262155348839,14.943262155348839,115.99628887950048
86.25742574257426,153.30976470036705,14.750478590384962,14.750478590384958,115.99723496873193
86.91089108910892,152.95773384722406,14.69722636770391,14.69722636770391,114.73569473617142
87.56435643564357,153.86327656093366,14.933392831769426,14.933392831769426,114.65110025139857
88.21782178217822,153.92765840625864,14.522424712299046,14.522424712299046,115.49801714153132
88.87128712871288,154.28814876081077,14.766848512865892,14.766848512865893,115.29869921432764
89.52475247524752,154.01719777347847,14.530685188791525,14.530685188791526,114.93308833495925
90.17821782178218,154.28770462582997,14.837344751093609,14.837344751093612,114.91342324551803
90.83168316831683,153.9456008292187,14.427985391073332,14.427985391073332,115.86982408312271
91.48514851485149,154.8235268915978,14.222867120593376,14.222867120593376,115.2467011425306
92.13861386138615,155.2856669354554,14.454631843416992,14.454631843416992,115.20655454283265
92.79207920792079,155.42847932562626,14.64611540737014,14.646115407370141,114.60607609953519
93.44554455445545,154.92941910078537,14.881199018300347,14.88119901830035,114.97991111214951
94.0990099009901,155.28262490519168,14.703423760595996,14.703423760595996,115.16355904759203
94.75247524752476,154.5368365369125,14.175810081863322,14.175810081863323,115.76606786897543
95.40594059405942,155.15928589677105,14.668222720915448,14.668222720915448,114.91176571673137
96.05940594059406,153.47409651244408,14.913590128355935,14.913590128355937,115.44932134384113
96.71287128712872,155.20391603590747,14.771801271057699,14.771801271057694,115.84800280193639
97.36633663366337,156.007688814753,14.701934118322322,14.701934118322322,115.58928968926551
98.01980198019803,155.2716128575223,14.510756917830744,14.510756917830747,115.59692331891272
98.67326732673267,156.62299857591643,14.430277837073312,14.430277837073312,115.07145555845253
99.32673267326733,155.36719884125714,14.260271602973523,14.26027160297352,115.41597069463876
99.98019801980199,155.75549232127068,14.377832982532155,14.377832982532157,116.3160394099383
100.63366336633663,155.47858101123154,13.610789231949694,13.61078923194969,115.70003938556218
101.2871287128713,155.69287382096064,13.65606051091363,13.65606051091363,115.32742896632212
101.94059405940594,155.96344395194058,14.29755880165523,14.29755880165523,116.66143683759188
102.5940594059406,155.9312806408294,14.083659925114484,14.083659925114478,115.40258693387453
103.24752475247526,156.45081022531923,14.513209979312254,14.513209979312254,114.82412241627279
103.9009900990099,156.00767412074026,14.357093197896303,14.357093197896303,116.39976050333763
104.55445544554456,155.6893694909802,14.188185289785952,14.18818528978595,114.90516083296811
105.20792079207921,156.45902935061233,14.189911829771251,14.189911829771251,115.42144370124264
105.86138613861387,157.3053756729648,14.198855290348124,14.19885529034812,113.9101648284027
106.51485148514853,157.52483776590657,14.188024627887884,14.188024627887884,115.25446090134768
107.16831683168317,156.04965364381297,13.846493809066388,13.846493809066386,115.58027801350482
107.82178217821783,156.93160870660898,13.763864827435002,13.763864827435002,116.66327248216743
108.47524752475248,155.51029720002407,14.165153714741994,14.165153714741992,115.52256069335566
109.12871287128714,156.9162013544786,13.417549064609897,13.417549064609894,117.36029243991575
109.78217821782178,156.72165217335757,13.567657957916,13.567657957916,115.90307773826231
110.43564356435644,157.34209318647513,13.733118928532548,13.73311892853255,115.49672018931375
111.0891089108911,157.75413826921343,13.672344224152384,13.67234422415239,115.99904610680066
111.74257425742574,158.94470822611464,13.614910492767443,13.614910492767443,115.45814493509211
112.3960396039604,158.75618533697698,13.659505842098293,13.65950584209829,116.02851758244013
113.04950495049505,160.37661542271564,13.482828376506072,13.482828376506074,116.29207535451704
113.70297029702971,158.77799127524025,14.164361814038978,14.164361814038978,118.36529210788274
114.35643564356437,159.65929784407686,14.374012922970689,14.37401292297069,117.02891203809837
115.00990099009901,159.57839236238004,13.996861990145723,13.996861990145721,117.4747880798187
115.66336633663367,158.24783344916875,13.391792094431326,13.391792094431331,116.59415337172338
116.31683168316832,159.44239488666113,13.309139563974574,13.309139563974574,116.70230775551592
116.97029702970298,158.58204487349326,13.639755779058799,13.639755779058804,116.95129824981986
117.62376237623762,158.83027710527634,13.589495032882002,13.589495032882002,115.6101577070997
118.27722772277228,158.40957371707313,13.667198339074284,13.667198339074284,115.90195048184822
118.93069306930694,158.3656831933308,13.478885827953762,13.478885827953762,114.87065678387602
119.58415841584159,159.99197329979003,13.623734051929913,13.62373405192991,116.29079087132098
120.23762376237624,158.7890969783259,13.123886552374906,13.123886552374904,115.29819713712958
120.89108910891089,158.0850171413167,13.572343594284618,13.572343594284614,115.20356519404513
121.54455445544555,158.3652657878454,13.381090353270643,13.381090353270645,117.00957424454155
122.19801980198021,159.04808320183733,13.368922878103309,13.368922878103307,114.77870097081895
122.85148514851485,158.99654679562946,13.193464652153178,13.193464652153178,114.96262543233968
123.50495049504951,160.53272656580086,13.312898202343238,13.312898202343241,115.72012710259166
124.15841584158416,158.90347260479226,13.706676715080505,13.706676715080503,114.51283526047649
124.81188118811882,158.36529386487408,13.70782754421276,13.70782754421276,114.80958343232133
125.46534653465346,157.5876967318625,13.801011023296132,13.801011023296132,113.73745778688355
126.11881188118812,160.0068659965743,13.30164641113465,13.30164641113465,114.95854567980055
126.77227722772278,159.65689978624508,13.66802330245465,13.668023302454651,113.8952070783666
127.42574257425743,159.10355842349088,13.953479686294243,13.953479686294243,115.95778253968457
128.07920792079207,159.529297512085,12.74178632048755,12.74178632048755,115.32120914420346
128.73267326732673,159.80218378376878,12.998598672115868,12.998598672115868,115.75271494250582
129.3861386138614,159.78625493895896,13.469161797525691,13.46916179752569,115.24854013021991
130.03960396039605,159.93504381285516,13.01547612482102,13.01547612482102,115.701641911323
130.6930693069307,159.2906107872034,13.30570462286873,13.30570462286873,115.02583402312358
131.34653465346534,159.2316224232327,13.186867166632123,13.186867166632123,115.52940521635998
132.0,160.70501801122103,12.996511481436483,12.99651148143648,116.82895101462745
132.65346534653466,160.15462365542334,13.179591527095944,13.179591527095944,114.99338880671819
133.30693069306932,159.80482481201494,13.316883911899888,13.316883911899888,115.53367359521214
133.96039603960398,159.67286978593157,13.706017641364781,13.706017641364781,117.34291479000366
134.6138613861386,160.15561334140173,13.15277073390303,13.15277073390303,115.54269600056483
135.26732673267327,160.4984269230616,12.969409064755457,12.96940906475546,115.45167484403902
135.92079207920793,160.19883263224128,12.792510794752125,12.792510794752125,113.5322077992806
136.5742574257426,160.64897242065442,12.759335876191734,12.759335876191734,113.97844597267674
137.22772277227725,160.45841692546583,12.892197467771764,12.892197467771764,113.99204704490676
137.88118811881188,160.0540003573834,13.132371032209635,13.132371032209635,114.99213858764858
138.53465346534654,159.53108721483883,13.160625116335348,13.160625116335348,115.53089532987144
139.1881188118812,160.41321874907192,13.473325626363742,13.473325626363742,115.70932199152799
139.84158415841586,160.78164148452535,13.067527752743453,13.067527752743455,115.55229072035014
140.4950495049505,160.63185407546825,12.916505739279193,12.916505739279193,115.55637112072783
141.14851485148515,159.85585289601264,13.025233104560106,13.025233104560106,115.058742323311
141.8019801980198,160.40697905642907,12.957494776545165,12.957494776545165,114.396438947646
142.45544554455446,160.67478572142596,12.865532495704278,12.865532495704281,114.08912725859348
143.10891089108912,160.39455010545467,12.42033972032564,12.420339720325646,114.71852213956456
143.76237623762376,161.03288850635573,13.17997706509885,13.17997706509885,115.90107047136148
144.41584158415841,160.28521025494786,12.9068468441066,12.906846844106605,114.48485719645494
145.06930693069307,160.93887376937857,13.2020421591323,13.202042159132295,114.87354148242403
145.72277227722773,161.65624148127952,12.828909376971069,12.828909376971072,115.69694980343655
146.3762376237624,161.60960741882369,12.773918748422467,12.773918748422467,115.3343033264185
147.02970297029702,160.22936542397542,12.75832869422816,12.758328694228158,115.14460681344674
147.68316831683168,160.93975530633054,13.335198422446947,13.335198422446947,115.91327462866103
148.33663366336634,161.79008703554766,12.839179498992872,12.839179498992872,114.44732294672525
148.990099009901,162.611246790567,12.734326363952635,12.734326363952635,115.84534259070377
149.64356435643566,162.21937915483815,12.863269855684626,12.863269855684626,115.79579765190587
150.2970297029703,162.20026316727314,12.519283135924091,12.519283135924091,115.83220256359068
150.95049504950495,161.99704795856357,12.652961692186548,12.652961692186551,115.77770326318588
151.6039603960396,161.48398615708956,12.870915376701374,12.87091537670138,115.95836236432574
152.25742574257427,162.10160634821455,12.079662187628601,12.079662187628601,114.66366657724714
152.91089108910893,162.26815122058932,12.527275029851458,12.527275029851456,115.63251488493624
153.56435643564356,162.0970196728751,12.166951401527083,12.166951401527083,116.81079084943471
154.21782178217822,163.6990808032929,12.65667793314474,12.656677933144744,116.5542114705743
154.87128712871288,163.06874335415054,13.035669700534529,13.035669700534527,116.74467241813389
155.52475247524754,164.4399076002997,12.829677613895013,12.829677613895013,118.30668798522784
156.1782178217822,164.18677828564836,12.641958061823471,12.641958061823475,117.63659974425191
156.83168316831683,163.08021606246956,12.962317193081182,12.96231719308118,117.81302402118487
157.4851485148515,164.430120909475,12.46774069275244,12.46774069275244,117.40385191590042
158.13861386138615,162.52215987144996,12.325043709603642,12.32504370960364,115.43605434060348
158.7920792079208,162.87291446159273,12.58118895726329,12.58118895726329,116.26246275535408
159.44554455445544,163.15790991186188,12.377876925122033,12.377876925122033,116.51381251071054
160.0990099009901,162.89028910157205,11.984866819729051,11.984866819729053,115.26819391164287
160.75247524752476,163.02282637039093,12.59475696613209,12.59475696613209,115.97928463483123
161.40594059405942,164.69757778511564,12.4791210764268,12.479121076426797,115.67366126925694
162.05940594059408,165.32369404709732,12.717442514377943,12.717442514377943,117.35899703790422
162.7128712871287,165.006381978366,12.624799942337033,12.624799942337035,117.3452132399223
163.36633663366337,165.2540583159136,13.017357854083638,13.017357854083642,117.39199673079713
164.01980198019803,164.21318298093328,12.13945192252709,12.13945192252709,117.04551559253052
164.67326732673268,165.84454120967675,12.45703867563567,12.457038675635673,118.68111892424596
165.32673267326734,165.49171868566006,12.361806266626886,12.361806266626887,118.18871462328985
165.98019801980197,164.86936929602808,12.19691817403038,12.19691817403038,117.2395380283061
166.63366336633663,164.15216985606955,12.429617649616159,12.429617649616155,119.17820003507316
167.2871287128713,165.37629326994346,12.188211875474176,12.188211875474178,117.89467173326635
167.94059405940595,164.35470163616245,12.166399027864403,12.166399027864404,118.46416535184733
168.5940594059406,164.76030493403042,11.786701126300779,11.786701126300777,116.4451998961923
169.24752475247524,164.47604436589654,12.097487530894238,12.097487530894236,117.83017328198981
169.9009900990099,165.7721507699647,11.906361343760516,11.90636134376052,118.28140639817391
170.55445544554456,164.84249407009685,12.199504331567042,12.199504331567042,117.63697838373686
171.20792079207922,165.66577863176198,12.254244169546126,12.254244169546123,116.98898291135514
171.86138613861388,164.63677338383755,12.716701739367771,12.716701739367767,118.2830519207275
172.5148514851485,164.9079793480754,12.30224055322445,12.302240553224452,117.80363014626595
173.16831683168317,165.55021824127118,12.044293718786738,12.04429371878674,115.98443857967672
173.82178217821783,165.5579026657853,12.004131441147914,12.004131441147914,117.44155117414604
174.4752475247525,166.10506491309167,11.579776506900865,11.579776506900867,118.11485240162709
175.12871287128715,166.34493345498706,12.106310536273716,12.106310536273716,117.87498725099398
175.78217821782178,165.83380026293042,12.132367972863053,12.132367972863053,117.26696194332021
176.43564356435644,166.4491262486593,11.746691663039641,11.746691663039638,116.65862448807258
177.0891089108911,164.3536833381669,12.281576863456797,12.281576863456795,118.28489514286412
177.74257425742576,167.71267586198164,11.621485472656303,11.621485472656301,117.18339325411789
178.3960396039604,166.657041496824,11.398610708067086,11.39861070806708,117.87557914771885
179.04950495049505,166.7007316705148,11.880398163625099,11.8803981636251,117.28867337096963
179.7029702970297,165.92935633983646,12.08770511776012,12.087705117760116,118.24680310831175
180.35643564356437,166.39113836369987,11.918136505796344,11.918136505796346,118.37481461114277
181.00990099009903,166.0315212428476,11.451627029996894,11.451627029996892,118.31103480512219
181.66336633663366,166.1546653115036,11.54074327091725,11.540743270917249,119.68069703363459
182.31683168316832,166.87291354671345,11.528643713397722,11.528643713397724,119.23425088465187
182.97029702970298,165.83016310220503,12.2656366798335,12.2656366798335,118.53674871974553
183.62376237623764,166.73734746493443,11.742419061126657,11.742419061126654,117.97729004314382
184.2772277227723,168.10826884640403,12.039000504696805,12.039000504696805,118.6642179923962
184.93069306930693,166.84038236543577,12.253025000119615,12.253025000119614,119.54951774461868
185.58415841584159,166.0381671068061,11.81275205444688,11.812752054446884,118.54319699069173
186.23762376237624,166.8806097129033,11.41799647319316,11.417996473193158,118.52869631418295
186.8910891089109,165.68758065120662,11.774872615320715,11.774872615320715,118.4201172919028
187.54455445544556,166.2841443660748,11.249965262453403,11.249965262453404,117.79988621646973
188.1980198019802,166.98884829932504,11.661385129532736,11.661385129532738,118.53584025533306
188.85148514851485,167.55054706831015,12.01016853423359,12.01016853423359,118.26659549402956
189.5049504950495,167.03441801875957,11.986399664474995,11.986399664474991,119.0020499534879
190.15841584158417,167.84776769560963,11.479489702797956,11.479489702797956,117.09389510562472
190.81188118811883,166.77684483453976,11.186999858110928,11.186999858110928,118.16687201671823
191.46534653465346,167.2852265987484,11.557239405866344,11.557239405866342,117.60224841211995
192.11881188118812,167.11554442081294,11.86659912379728,11.86659912379728,118.5614155229252
192.77227722772278,168.05397110042642,11.447279579260755,11.447279579260755,118.85203449549161
193.42574257425744,169.34106979982676,11.733459364054616,11.733459364054616,119.2979160630693
194.0792079207921,167.59814834725054,11.42036042420157,11.420360424201569,119.05964810446119
194.73267326732673,168.28478763349165,11.626383958669521,11.62638395866952,118.41088284901183
195.3861386138614,168.49333362366272,11.307429980604438,11.307429980604438,119.56562357302768
196.03960396039605,168.19417891745488,11.58748439170726,11.587484391707259,120.21535879817652
196.6930693069307,169.15054014506802,11.16821859985865,11.168218599858646,119.73126583860588
197.34653465346534,169.71563418483535,11.54892352600585,11.54892352600585,119.52569728789476
198.0,169.1494280280275,11.350710498567475,11.350710498567476,120.83445702420212
198.65346534653466,169.28847402108983,11.16785024312232,11.16785024312232,120.82373405076463
199.30693069306932,168.57382394557737,11.260979511769442,11.260979511769444,120.26404913189323
199.96039603960398,169.91829693582963,11.43585387852244,11.435853878522442,121.10638755016534
200.6138613861386,169.451546960092,11.305559216365419,11.305559216365419,119.77893177347599
201.26732673267327,168.74790698709205,11.229897040016661,11.229897040016661,119.5674308372147
201.92079207920793,169.0444947368355,11.138588656502268,11.138588656502268,120.77323570810215
202.5742574257426,170.40507805787178,11.898962246159785,11.898962246159785,121.17912208408877
203.22772277227725,169.63238658480242,10.80187238414086,10.801872384140859,121.32870701060625
203.88118811881188,169.6622319147256,11.148383091148094,11.148383091148093,119.99170257613083
204.53465346534654,169.28657140936335,11.059011662820172,11.059011662820172,120.45226619209737
205.1881188118812,169.97194523760874,11.161432435590932,11.161432435590935,120.88427885321903
205.84158415841586,169.29744551823427,11.27902065123561,11.27902065123561,120.21016598743934
206.49504950495052,170.0372409519899,11.440081602536553,11.440081602536551,120.96262280037142
207.14851485148515,168.76283442293706,11.143414150829667,11.143414150829669,121.16892931792125
207.8019801980198,171.23842281298633,11.300426269663763,11.300426269663763,121.87190290013937
208.45544554455446,170.85368556535667,11.326373757207115,11.326373757207115,122.3356096104783
209.10891089108912,171.07492565121171,11.575533566243744,11.575533566243744,122.0385221380907
209.76237623762378,171.57526649904528,10.766768888892212,10.766768888892212,121.95569950981354
210.41584158415841,174.55597425658308,10.441736606362303,10.441736606362303,124.87801356064844
211.06930693069307,174.08279890256793,10.447952882804785,10.447952882804785,124.76522436720849
211.72277227722773,174.85088702018703,10.836905212624634,10.836905212624632,124.69652779371063
212.3762376237624,176.02534909989384,10.266113917789825,10.266113917789825,123.74250675064836
213.02970297029705,175.84049109927685,10.570315397712806,10.570315397712804,124.16564054560038
213.68316831683168,175.46330375580874,10.710855526918857,10.71085552691886,126.48773719218835
214.33663366336634,175.71776904812756,10.805701082997903,10.805701082997901,125.27719964404108
214.990099009901,175.33302037657202,10.67624631971162,10.67624631971162,125.97658025558829
215.64356435643566,176.76315853494467,10.58762698057185,10.587626980571851,126.36911952336992
216.2970297029703,176.1809145574153,10.73001639562588,10.73001639562588,123.82045764334863
216.95049504950495,180.93037327905452,5.842743060786119,5.8427430607861215,128.21189052219717
217.6039603960396,178.16275983466477,10.995429029634078,10.995429029634078,127.29097186758106
218.25742574257427,176.9362350048319,11.099786579374364,11.099786579374367,128.65441535515427
218.91089108910893,178.42373572093146,10.833200418351826,10.833200418351828,128.1728125213666
219.56435643564356,179.086432202868,10.88037140490751,10.88037140490751,127.32607704028774
220.21782178217822,177.50427920649778,11.033528944454815,11.033528944454817,127.78695139152298
220.87128712871288,178.55272990570197,10.696777469839096,10.696777469839095,128.15356767608364
221.52475247524754,178.1171266945703,10.535962889329566,10.535962889329571,128.29322110006848
222.1782178217822,178.1837744090711,11.246571342703747,11.246571342703742,129.4429003649812
222.83168316831683,178.06908805442225,10.877914787154396,10.877914787154396,128.78164415556813
223.4851485148515,177.98486051413423,10.897603586786525,10.897603586786525,129.20979143613368
224.13861386138615,177.9239347863148,10.857341020790688,10.857341020790688,127.86841905635572
224.7920792079208,178.45818888239316,11.130030060198509,11.130030060198505,127.43816011083612
225.44554455445547,177.56339038515375,10.779149555345382,10.779149555345382,126.89866661335427
226.0990099009901,177.73213500914562,11.043920265896478,11.043920265896482,127.76456849168807
226.75247524752476,178.17160833825926,10.948478802067728,10.948478802067728,128.54201541722458
227.40594059405942,179.27060180027777,10.39518989147276,10.39518989147276,129.410909237726
228.05940594059408,179.58416803927307,10.784684829676191,10.784684829676191,128.38911496014052
228.71287128712873,179.18806695492526,10.644919793721533,10.644919793721533,127.40432830891004
229.36633663366337,179.60546196384058,10.80607111496717,10.806071114967166,127.87857037820899
230.01980198019803,178.40863231031423,11.096792957756726,11.09679295775673,129.6996105085167
230.67326732673268,179.63186712216606,11.040511396407926,11.040511396407926,129.75005059158772
231.32673267326734,179.5588698344354,10.922209713883401,10.922209713883401,130.48570345237914
231.980198019802,179.9161431140989,11.035088842019483,11.035088842019487,130.17727003965007
232.63366336633663,179.3756924755721,10.91080034416011,10.91080034416011,130.29612136181737
233.2871287128713,179.6086840785269,10.655687288455553,10.655687288455553,129.9220667314508
233.94059405940595,180.08844202634262,11.12492828714319,11.124928287143192,128.38153169919826
234.5940594059406,178.4209086933154,10.692056061658059,10.692056061658057,128.99731508293522
235.24752475247524,179.49827012845347,10.732460894957159,10.732460894957159,130.03673732111517
235.9009900990099,179.79720504442187,11.22266126149771,11.22266126149771,130.05536471400993
236.55445544554456,180.23864518061512,10.124585395192131,10.124585395192131,131.33942246486455
237.20792079207922,180.1743890144278,10.52098927122739,10.52098927122739,130.6182316112121
237.86138613861388,179.6064413530892,10.836379236783635,10.836379236783635,130.98004374332726
238.5148514851485,179.54730980224633,9.939561971571784,9.939561971571786,130.41344097720486
239.16831683168317,179.77844137293732,10.896740558313022,10.896740558313024,130.08188647745445
239.82178217821783,181.42036622569935,10.372350139299128,10.372350139299128,131.96834977229165
240.4752475247525,181.14746897227653,10.460312952179166,10.460312952179168,131.98532981163638
241.12871287128715,181.51392772719117,10.329983150805015,10.329983150805019,129.94759267254352
241.78217821782178,180.481236467399,10.195116231388683,10.19511623138868,131.61441661884416
242.43564356435644,180.492741686541,10.62122975362311,10.62122975362311,128.928521967081
243.0891089108911,181.04609795954718,10.296541278572047,10.296541278572045,130.931764479322
243.74257425742576,180.46447902531892,10.23520145392133,10.23520145392133,130.45487552692555
244.39603960396042,179.40465322291493,10.51153155800018,10.511531558000181,130.88386266103598
245.04950495049505,179.96243626369173,10.64218578562407,10.64218578562407,130.61638082596124
245.7029702970297,180.9065815998364,10.286035441810771,10.28603544181077,132.58897713741206
246.35643564356437,180.58480905317637,9.997870170006209,9.997870170006205,130.77486627598824
247.00990099009903,181.43200888964495,10.916134300860652,10.916134300860652,132.24493917699508
247.6633663366337,181.14822923856266,10.63809702783415,10.63809702783415,131.28139404673152
248.31683168316832,180.802402722186,10.39557489647621,10.395574896476212,133.012426553895
248.97029702970298,181.5474595635429,10.4597336537108,10.4597336537108,132.15450029854978
249.62376237623764,181.18919113954573,10.392333644838686,10.392333644838684,133.1844682800234
250.2772277227723,180.70232385041862,10.841735551456313,10.841735551456313,132.00273356669575
250.93069306930693,182.27103936499714,10.582074390559029,10.582074390559027,132.338745659307
251.58415841584159,182.06708483787008,10.190383761457346,10.190383761457348,131.59516193952777
252.23762376237624,181.58595225764117,10.560110987118557,10.560110987118557,132.6635046387408
252.8910891089109,182.04907861043256,10.224081420823143,10.224081420823145,134.00258178869862
253.54455445544556,182.37386957191114,10.278601499617846,10.278601499617844,134.3420539239588
254.1980198019802,181.79321816720974,10.226456917891742,10.226456917891744,133.83822026310168
254.85148514851485,181.90514497397004,10.587602314521815,10.587602314521815,135.03724753943257
255.5049504950495,182.4164143468401,10.486931319682816,10.486931319682816,132.29012198467467
256.15841584158414,182.28904206653104,10.18495711585968,10.184957115859683,131.93089508755972
256.81188118811883,182.09689190234485,10.354426036167084,10.354426036167084,133.91096790290234
257.46534653465346,181.6290940583666,11.048731500644784,11.048731500644784,133.85461401846857
258.11881188118815,180.85713563252648,10.344063786580898,10.344063786580898,132.59811084821087
258.7722772277228,181.1180788857983,10.513955705359972,10.513955705359976,134.11981996029638
259.4257425742574,181.9230683033719,10.23810918096024,10.23810918096024,134.2172532123347
260.0792079207921,182.90993153034265,10.402476269640553,10.402476269640552,135.15619740687146
260.73267326732673,181.93249567451974,10.51953386272221,10.51953386272221,133.29416913112243
261.3861386138614,182.85975342249216,10.027387069125915,10.027387069125915,133.54843811995391
262.03960396039605,181.2271673974822,11.029716360027004,11.029716360027004,133.13906011483095
262.6930693069307,181.5099653776738,10.256019994532519,10.256019994532519,134.65899122615556
263.34653465346537,181.48188426225116,9.826516365160142,9.826516365160142,134.62127566091982
264.0,181.09521995398313,10.442246103646283,10.442246103646283,133.56330550092235
264.6534653465347,183.88009049176074,10.28543490174952,10.28543490174952,133.7262162047258
265.3069306930693,182.39190223769324,10.31476143814908,10.31476143814908,134.02722989816547
265.96039603960395,181.4831341999813,10.649614027545029,10.649614027545029,134.61660798965937
266.61386138613864,183.7067014330969,10.862479172117782,10.862479172117784,135.6252363505111
267.26732673267327,183.57960643875487,10.35037818049644,10.350378180496438,135.23920060650363
267.92079207920796,183.00408535181577,10.655783001299952,10.655783001299955,133.95300319533195
268.5742574257426,183.49625608273226,10.050584686879551,10.050584686879548,135.55904949826248
269.2277227722772,182.9584994525186,10.250705157779315,10.25070515777932,134.55305114896197
269.8811881188119,183.27534602046762,10.408350892612724,10.408350892612722,134.74563500097224
270.53465346534654,183.52185389077184,10.41759506081034,10.417595060810342,134.62341264423034
271.1881188118812,183.12582488575907,10.293482726582955,10.293482726582955,134.5705812013476
271.84158415841586,183.92887654749214,10.491289551376125,10.491289551376125,136.3657586379942
272.4950495049505,183.7666425745975,10.55188243341038,10.551882433410384,135.1231678847312
273.1485148514852,183.25505796430625,10.760475222333177,10.760475222333179,134.3236466870789
273.8019801980198,183.38373021237956,9.902291857064984,9.902291857064982,134.45791517965765
274.4554455445545,183.5498349775009,10.290277426034152,10.29027742603415,136.39221095529564
275.1089108910891,184.7374500536567,10.310565380002693,10.310565380002693,134.7527807668876
275.76237623762376,183.89948073297757,10.017391984811344,10.017391984811345,136.8700933173674
276.41584158415844,183.59156905569193,10.504601082342717,10.50460108234272,134.5780087831473
277.0693069306931,182.9889681951953,10.05263569444464,10.05263569444464,136.088506476464
277.72277227722776,184.68268402445767,9.839193437414636,9.839193437414636,137.31118639848478
278.3762376237624,183.83029255796956,10.351870778951735,10.351870778951733,135.41655401185866
279.029702970297,183.98186963143593,10.43895939800884,10.438959398008842,136.54225367782055
279.6831683168317,183.09456023915615,10.17304380715876,10.17304380715876,137.39051889780774
280.33663366336634,184.80191965216042,9.84253457307929,9.842534573079291,136.59231809440493
280.990099009901,184.49094719055714,10.531015389397654,10.53101538939765,136.509287253581
281.64356435643566,184.0815861920863,10.364115354024428,10.364115354024428,135.90550378128108
282.2970297029703,184.18149857260505,9.859546925527251,9.859546925527251,136.99166254701663
282.950495049505,184.20239792369208,10.204091175211321,10.20409117521132,136.39146341148697
283.6039603960396,183.50768496567136,10.26790828285387,10.267908282853876,137.46725676848877
284.25742574257424,183.8690346173235,9.678264009659186,9.678264009659184,135.42526289941335
284.91089108910893,184.29214241320574,10.202035785835289,10.202035785835289,137.67364106876815
285.56435643564356,183.5558958811381,10.049203642997352,10.049203642997352,136.5130686327487
286.21782178217825,184.73260009641672,9.681930366201938,9.681930366201938,136.88208162542577
286.8712871287129,185.09314523231058,10.211575574618436,10.211575574618438,136.90731845960727
287.5247524752475,186.1416472761142,9.840572783076642,9.840572783076645,136.88222023329357
288.1782178217822,185.27363881463276,9.81885418794855,9.81885418794855,138.0067644188849
288.83168316831683,184.58471137887813,10.469049357171189,10.469049357171189,138.5974638602681
289.4851485148515,185.8093575816694,10.34073126637158,10.34073126637158,137.66294520047154
290.13861386138615,185.3459594465797,9.754126777510116,9.754126777510116,136.60917446750594
290.7920792079208,185.4170266327582,9.892024540068036,9.892024540068034,138.13343925059647
291.44554455445547,186.062805209342,9.985372044510875,9.985372044510875,137.48630195828304
292.0990099009901,185.21829916591932,10.345350719743502,10.345350719743506,137.9127344389876
292.7524752475248,186.1472924968113,9.765815875340941,9.765815875340941,139.1903573356315
293.4059405940594,185.37912417104314,9.748251200838661,9.748251200838663,139.04868158400265
294.05940594059405,185.954849469291,9.615670980864914,9.615670980864914,138.86191260855176
294.71287128712873,186.91092987832977,10.345056458913808,10.34505645891381,137.5099675186435
295.36633663366337,185.11577522120498,9.653737076928135,9.653737076928135,137.6395608403846
296.01980198019805,186.4858117896577,9.950946385555467,9.950946385555467,137.98276695456428
296.6732673267327,185.51505472945425,9.875570297570588,9.875570297570592,138.2923564543644
297.3267326732673,185.30981840159893,9.488566331356452,9.488566331356449,139.51049792562142
297.980198019802,185.751878412085,9.652024940909886,9.652024940909888,138.53759012237575
298.63366336633663,186.08542259027112,9.981365045114988,9.981365045114988,138.5105369381173
299.2871287128713,186.58038831094873,9.904191556086234,9.904191556086234,140.3232726719217
299.94059405940595,187.07788807319537,9.640425493814398,9.640425493814398,141.16685187203578
300.5940594059406,185.75124158221055,9.851390499125937,9.851390499125936,140.6568236584083
301.2475247524753,187.27809226644308,9.485079309206544,9.485079309206544,139.1372198689512
301.9009900990099,185.725306474868,9.924706998415624,9.92470699841563,141.53028883010637
302.5544554455446,187.23600923590433,10.04508677477836,10.045086774778358,140.87884823871852
303.2079207920792,187.26929592703434,10.116108743002835,10.116108743002837,141.1804619711816
303.86138613861385,187.73108228195622,9.648223996435355,9.648223996435359,141.2433551735774
304.51485148514854,187.81917224563176,9.469557482535398,9.4695574825354,143.20853426695643
305.16831683168317,187.75425131236028,10.126275088962696,10.126275088962695,141.48062339195525
305.82178217821786,186.63545109768245,10.016993205749566,10.016993205749566,142.59780336982257
306.4752475247525,187.3775286588301,10.027844734829763,10.027844734829761,142.98744214290934
307.1287128712871,188.50679214803222,9.873904787254668,9.873904787254668,141.47084639868612
307.7821782178218,189.1166343270037,9.600608110861616,9.600608110861614,143.29656976974792
308.43564356435644,188.12544479630813,9.820916067988431,9.820916067988431,142.85006364256895
309.0891089108911,188.9918002203305,10.136327706169515,10.136327706169512,143.2662233900435
309.74257425742576,188.04868055006273,9.895750192529531,9.89575019252953,143.7820122922279
310.3960396039604,188.3314707900637,9.581993863104218,9.581993863104218,144.24510086570854
311.0495049504951,188.11217557425707,9.494046668579504,9.494046668579507,141.62922220166593
311.7029702970297,188.68095570614327,9.639636546870504,9.639636546870504,143.08674346201164
312.3564356435644,188.3282031339731,9.624440281302945,9.624440281302945,142.2042066093378
313.009900990099,188.73147316118622,10.319420135584863,10.319420135584865,142.16918039153447
313.66336633663366,188.4024149873563,10.274584044163303,10.274584044163307,142.0192548844084
314.31683168316835,186.9063099641061,10.113998271561135,10.113998271561135,144.4309943012428
314.970297029703,187.8776789499659,9.594632865138179,9.594632865138179,142.45114122263124
315.62376237623766,187.59641816510464,9.660485623225696,9.660485623225696,143.84336066993896
316.2772277227723,187.74820118051375,10.130651562631018,10.130651562631014,143.54993658677387
316.9306930693069,189.23390595236992,9.487968685011666,9.487968685011667,144.77755318438014
317.5841584158416,189.4257761926543,9.97510260361958,9.975102603619579,143.78000347011366
318.23762376237624,188.0954913373511,9.985412295265538,9.985412295265537,143.43769077589025
318.8910891089109,189.1609739284483,9.293467618574628,9.293467618574628,144.74668321492277
319.54455445544556,189.1899835748529,9.877037568595126,9.877037568595126,144.78726774042136
320.1980198019802,189.69998359271017,9.379597666528312,9.37959766652831,145.8363392550038
320.8514851485149,188.45943375067685,9.224874874769965,9.224874874769963,145.92012804187496
321.5049504950495,190.1837491696771,9.75401258927925,9.754012589279252,145.4561258616636
322.15841584158414,187.5604849102439,8.754421515581766,8.754421515581768,141.94945355002088
322.81188118811883,187.81579798780794,9.27573384824346,9.275733848243458,143.31841855031016
323.46534653465346,189.4854542264511,9.471210939692224,9.471210939692224,143.57481157951955
324.11881188118815,188.41597865375468,9.593397520824407,9.593397520824409,145.99987920727378
324.7722772277228,188.9666466547548,9.699208583842607,9.699208583842607,145.68498199551115
325.4257425742574,189.788412049632,9.918184609340575,9.918184609340573,146.10346377648344
326.0792079207921,189.77069748350252,9.871956377517888,9.871956377517886,146.73897133445723
326.73267326732673,190.26399694600198,9.62681636472593,9.62681636472593,147.45866655894022
327.3861386138614,190.58940405651722,9.970463571076344,9.970463571076344,146.55723005196177
328.03960396039605,190.0556335689951,9.395944119987288,9.395944119987286,145.5567069246127
328.6930693069307,189.48969251347663,9.456273983187593,9.456273983187593,144.87599492634922
329.34653465346537,188.2258188194446,9.357966946271436,9.357966946271436,146.03411099333607
330.0,189.54999584173058,10.096332480029686,10.096332480029686,145.52145045084535
330.6534653465347,189.8249910887515,9.708617689693511,9.708617689693513,146.62739181616794
331.3069306930693,189.04562570424733,9.54125921392806,9.541259213928065,146.16392551178356
331.96039603960395,189.95761823110354,9.994145729524812,9.994145729524814,146.20457157055915
332.61386138613864,189.28294395897123,9.732464317193644,9.732464317193642,145.6685280968563
333.26732673267327,189.68951927700988,9.423073408483315,9.423073408483315,146.62271700075496
333.92079207920796,189.7098946085842,10.319494660400885,10.319494660400885,145.51831145098828
334.5742574257426,189.87973776324228,9.716252140086427,9.716252140086427,145.56778152179174
335.2277227722772,190.26109249886076,9.283264057388344,9.283264057388344,146.44440575236575
335.8811881188119,190.73507879137347,9.421520204221952,9.421520204221952,145.8372041311209
336.53465346534654,189.9458526885724,9.593251174014705,9.593251174014705,146.5438864279948
337.1881188118812,191.4782089761355,9.553414242438176,9.553414242438176,147.6208999249286
337.84158415841586,191.7131173574409,9.544483842160757,9.544483842160755,148.6754163058693
338.4950495049505,190.67070294377382,9.741054998894763,9.741054998894764,148.10008258026966
339.1485148514852,191.84288148400944,9.607475384822406,9.607475384822406,147.68321276239746
339.8019801980198,190.78149826823088,9.455031897889164,9.455031897889159,148.62099688332742
340.4554455445545,190.54290593827199,9.45489400788928,9.45489400788928,147.95281082262744
341.1089108910891,190.17676375885472,9.40361127758747,9.403611277587471,147.65797146055957
341.76237623762376,190.66603512938005,9.55001894173246,9.55001894173246,149.9342007253475
342.41584158415844,192.95654081963994,9.486264882523578,9.48626488252358,148.84742246667824
343.0693069306931,191.9326173836593,9.389240800905032,9.389240800905036,150.2063202447373
343.72277227722776,191.95474909660808,9.216936832955575,9.216936832955577,149.6625570280434
344.3762376237624,191.89787130940752,9.227862258267022,9.227862258267022,148.93062809993685
345.029702970297,191.96117119000147,9.658588719932508,9.658588719932508,148.70766971081585
345.6831683168317,192.09733464565178,9.441243055915615,9.441243055915619,150.35551274931035
346.33663366336634,191.55585027376938,9.730403319000638,9.730403319000638,148.9774403275551
346.99009900990103,191.53117090850995,8.87324080128117,8.873240801281172,149.1493810571179
347.64356435643566,191.43968894751475,9.396457408267096,9.396457408267096,148.96020018089774
348.2970297029703,191.44807736954937,9.738461454547185,9.738461454547185,150.3522933524842
348.950495049505,191.94083441711268,9.690714326196312,9.690714326196312,149.13403509440573
349.6039603960396,192.8288703972682,9.565814414758595,9.565814414758592,150.25957467396208
350.2574257425743,192.9330330187968,9.283934656776628,9.28393465677663,149.9460736254042
350.91089108910893,192.1895323810588,9.138421428869318,9.13842142886932,149.69922387843508
351.56435643564356,191.95662027856562,10.03374589536166,10.03374589536166,151.86490378677343
352.21782178217825,192.89494627771018,10.006740017687761,10.006740017687763,150.33788853391758
352.8712871287129,192.1080403979382,9.793861378290655,9.793861378290657,149.99755985841634
353.5247524752475,192.89948471352432,9.595334535265897,9.595334535265895,152.46646839296358
354.1782178217822,193.01557878585785,9.096434300529362,9.096434300529362,151.8947293925409
354.83168316831683,193.32029884383599,9.383063123489176,9.383063123489178,151.64795212939077
355.4851485148515,193.20230748730626,9.251593816912628,9.251593816912628,152.42839373882222
356.13861386138615,194.26234018523581,9.508201506428774,9.508201506428772,151.94828590100386
356.7920792079208,193.88636315816328,9.649878563199634,9.649878563199637,152.932361925665
357.44554455445547,195.16277934353187,9.570345021467096,9.570345021467098,151.916188095247
358.0990099009901,194.5262845665429,9.394643793747866,9.394643793747866,152.31306137976293
358.7524752475248,192.9606426060308,9.393911037548241,9.393911037548241,151.1878867932817
359.4059405940594,192.67597261255062,9.33548599079096,9.33548599079096,150.85387256629667
360.05940594059405,193.78714562418364,9.443769932211993,9.443769932211993,152.93318688409198
360.71287128712873,194.27900256397118,9.584193883315768,9.58419388331577,153.03809829716462
361.36633663366337,193.50461717029356,9.18546669963357,9.18546669963357,151.91214991748862
362.01980198019805,194.11397450941737,9.55059498323707,9.550594983237069,152.23022317920044
362.6732673267327,193.9214833789531,9.51962373785524,9.51962373785524,150.9043062591856
363.3267326732673,193.0274387693522,9.210466667339295,9.210466667339295,151.91700148943272
363.980198019802,193.31929732639304,9.803977459924226,9.803977459924226,152.49424692209834
364.63366336633663,194.39042558224688,9.228162142669083,9.228162142669083,152.90206699628445
365.2871287128713,193.61835378112215,9.98761177412432,9.98761177412432,153.8650674180536
365.94059405940595,194.12968014832614,9.518495996592716,9.518495996592716,153.33140382685175
366.5940594059406,194.18480489357546,9.641785182933418,9.641785182933418,152.9767371778676
367.2475247524753,193.5819047513854,9.8874052590613,9.8874052590613,153.7278363315222
367.9009900990099,193.94060043456412,9.478383824734754,9.478383824734754,154.32147418956268
368.5544554455446,194.23731451038387,9.224390302999844,9.224390302999844,154.63763038053517
369.2079207920792,193.7298330477691,9.230444764710935,9.230444764710933,153.13162408306465
369.86138613861385,195.38892982774024,8.686770227664498,8.686770227664494,154.88078722675758
370.51485148514854,193.81969271448122,9.371576004263254,9.371576004263256,153.90835602988037
371.16831683168317,193.76880775881494,9.489617682108014,9.489617682108012,156.38246529577117
371.82178217821786,194.28372930510037,9.003858629448148,9.003858629448148,155.62576201212462
372.4752475247525,194.45130506193584,9.468681719353432,9.46868171935343,155.6253472501803
373.1287128712871,195.39377910647445,8.87486520962422,8.874865209624222,156.6915257426665
373.7821782178218,195.11360474755386,8.624886291188638,8.624886291188638,156.53104804427684
374.43564356435644,195.39480509145218,9.41126942475445,9.41126942475445,157.19544203767148
375.0891089108911,196.98559821706706,8.716045526324312,8.71604552632431,156.21184414323682
375.74257425742576,195.52043332577145,9.618137315361128,9.618137315361126,157.7796048493278
376.3960396039604,195.5892541803372,9.445901905145016,9.445901905145016,156.47437243822077
377.0495049504951,195.58047431566297,9.159638154973093,9.159638154973093,157.38436786706913
377.7029702970297,195.92432329552213,9.201927896766646,9.201927896766646,158.21186248631014
378.3564356435644,196.3061763006622,9.191399339373842,9.191399339373842,156.14444253634403
379.009900990099,195.32323727714436,9.326882343370887,9.326882343370887,156.9468715969153
379.66336633663366,195.6298860243817,9.43427285482533,9.43427285482533,157.02638113486825
380.31683168316835,195.4090150114609,9.47274619602394,9.472746196023937,157.95635740773682
380.970297029703,196.45971590370908,9.315784845137813,9.315784845137813,156.14535212849904
381.62376237623766,196.7456299283515,9.089057933645165,9.089057933645165,156.63802011676586
382.2772277227723,196.55709074085266,9.260041557907849,9.26004155790785,157.37940321329117
382.9306930693069,196.10668962359713,9.429515984243327,9.429515984243327,157.69316555940907
383.5841584158416,196.3378859266157,9.380709465072986,9.380709465072984,157.19860496527212
384.23762376237624,195.9588886366659,8.873166440828628,8.873166440828626,158.72517523589696
384.89108910891093,197.32533068496156,9.201043545710474,9.201043545710478,157.87358277730743
385.54455445544556,197.3371034524062,8.996884720134382,8.996884720134382,158.37557818711778
386.1980198019802,196.47286510720923,9.553239417892417,9.553239417892415,160.05165227140213
386.8514851485149,196.48015166131597,9.066031470688728,9.06603147068873,158.79594378833994
387.5049504950495,197.89935343959334,9.02060979026274,9.02060979026274,159.56502594254852
388.1584158415842,197.8385873420006,8.9114927140075,8.9114927140075,158.8232596220018
388.81188118811883,197.35709132005744,8.974001123475444,8.974001123475443,157.794981810133
389.46534653465346,196.8655104245786,9.122289704815824,9.122289704815822,158.98580635937932
390.11881188118815,196.8844528670258,9.137359740152903,9.137359740152904,158.97217827119294
390.7722772277228,196.4246795065882,8.52004157613742,8.520041576137418,159.09776552699915
391.4257425742574,196.06844773276208,8.974150919152539,8.97415091915254,160.01265293267554
392.0792079207921,196.4188948824257,9.067293206529671,9.067293206529671,159.05849546350626
392.73267326732673,196.75216775411337,9.093347043302414,9.093347043302414,158.9849058034183
393.3861386138614,197.59233814773577,8.591558803185906,8.591558803185904,160.03555712592046
394.03960396039605,198.29937494363085,8.72791898057998,8.727918980579982,159.50232712154218
394.6930693069307,197.62846417258768,9.239670343509006,9.239670343509005,159.96251131891069
395.34653465346537,197.92817165093794,9.70272761911778,9.70272761911778,161.35252820750085
396.0,198.09976918760427,9.138029635711332,9.138029635711332,161.87763702335315
396.6534653465347,198.72292161843765,8.763012942579625,8.763012942579625,160.78814273832432
397.3069306930693,197.61178710749982,9.36248673605323,9.362486736053235,160.51764139238
397.96039603960395,198.7025127416715,8.76539471012793,8.765394710127932,162.16373013244052
398.61386138613864,197.89694642830779,8.782448233253408,8.782448233253408,163.54722408794703
399.26732673267327,198.74612842940815,8.894402602521813,8.894402602521813,160.18234159292942
399.92079207920796,199.4395948654829,9.046920634928728,9.046920634928725,160.68975294603416
400.5742574257426,198.30962509674907,9.020146538348543,9.020146538348543,162.20062916282504
401.2277227722772,198.57792082686547,9.018075452636255,9.018075452636257,162.75669417159878
401.8811881188119,198.96293098164216,9.25530782781029,9.255307827810288,162.97298121477172
402.53465346534654,200.113099861772,9.097688380008105,9.097688380008105,162.88812811660355
403.1881188118812,198.3222507682077,8.433638494570115,8.433638494570115,162.21967936437355
403.84158415841586,199.32295580353986,8.653713508110563,8.653713508110565,162.06688927373062
404.4950495049505,199.12151621266466,9.298329482492978,9.298329482492973,163.1299003352176
405.1485148514852,198.8102720274635,8.94344198510857,8.94344198510857,163.4271888989822
405.8019801980198,198.3178353761307,9.26402728643054,9.264027286430537,163.74718720417533
406.4554455445545,200.1613235232415,9.26354076723012,9.263540767230122,162.16095728361793
407.1089108910891,198.99653962018164,9.152083283453402,9.152083283453406,162.65229827495418
407.76237623762376,199.30201438138374,8.951104896201757,8.951104896201757,163.3213423717142
408.41584158415844,198.25596559070715,9.973564965852558,9.973564965852557,163.2913117036661
409.0693069306931,199.45083076095275,8.867565236498018,8.867565236498013,163.03298139583313
409.72277227722776,198.55437853190784,8.741954583152681,8.741954583152681,164.2461048199674
410.3762376237624,198.9364067517936,9.55374241612183,9.55374241612183,163.2335779140114
411.029702970297,199.38870238732153,9.276189976694432,9.276189976694432,163.58387529172342
411.6831683168317,199.37703124874716,8.639300214720238,8.63930021472024,163.32476528340658
412.33663366336634,200.12113020383632,8.82623959333445,8.826239593334448,163.70005536834447
412.99009900990103,199.0004371947425,9.379320717488925,9.379320717488923,163.79373205144847
413.64356435643566,200.14462941666469,8.816311901642583,8.81631190164258,164.70509824377203
414.2970297029703,199.1874919673495,9.373892561557787,9.37389256155779,163.1321216729351
414.950495049505,199.07911469473888,9.518931461138322,9.518931461138322,163.7383082334843
415.6039603960396,200.2094815624245,8.96306828810761,8.96306828810761,163.37749616460462
416.2574257425743,199.71495954229067,8.791614286260227,8.791614286260227,165.46011242306284
416.91089108910893,199.4646373341467,9.916993568654263,9.916993568654268,165.5005454863391
417.56435643564356,200.51552031422523,8.778362752701222,8.778362752701224,164.90062328391568
418.21782178217825,200.79420560852546,9.090273201965234,9.090273201965234,166.18282279997615
418.8712871287129,198.09744123633743,9.27510220697339,9.27510220697339,165.95796827159856
419.52475247524757,199.0441654828129,8.384981685632448,8.384981685632448,165.35467593924605
420.1782178217822,199.32823023437174,8.770031329925219,8.770031329925217,164.51371983890192
420.83168316831683,199.00238104001195,9.0358619390137,9.035861939013701,164.25642339739204
421.4851485148515,200.0090508339788,9.727435451117472,9.727435451117474,163.0387905149873
422.13861386138615,199.08678543181253,9.710493643394068,9.710493643394067,165.12234752294546
422.79207920792084,200.41490193597738,8.966799391701088,8.966799391701084,165.57501524066618
423.44554455445547,199.98926094877226,9.207231595899664,9.207231595899666,166.32445511270495
424.0990099009901,199.6803877780033,9.367438444469435,9.367438444469434,166.24854548444145
424.7524752475248,199.34601142626587,9.284418421826137,9.284418421826137,166.17761787226814
425.4059405940594,200.09686293129124,9.686142327104479,9.686142327104479,166.64722501544816
426.0594059405941,199.37411821863432,9.123599944444345,9.123599944444344,166.14685347344872
426.71287128712873,199.72912992665974,8.62801909532302,8.628019095323022,166.41958723582493
427.36633663366337,201.4800843505064,10.85330421141757,10.85330421141757,168.0797375047941
428.01980198019805,200.56100711938765,8.836155486161497,8.836155486161497,165.4768798494405
428.6732673267327,201.20375491047847,8.869283720070182,8.869283720070182,166.42700262604833
429.3267326732673,199.50407628091043,8.640299522440682,8.640299522440682,171.27935080275955
429.980198019802,201.47310155909742,9.158107136242725,9.158107136242727,170.60035843581727
430.63366336633663,200.7615186291764,9.082048394173546,9.082048394173546,170.50028190259772
431.2871287128713,202.08359103154984,9.692247022766907,9.692247022766907,170.51167216025618
431.94059405940595,201.852617023227,9.273615655957753,9.273615655957757,170.34055657345513
432.5940594059406,201.04789248944593,9.51501996942315,9.515019969423147,172.60831347389995
433.2475247524753,203.10894579254895,9.335114770519324,9.335114770519324,170.18369771993696
433.9009900990099,202.8485205079192,8.976424022954177,8.976424022954177,171.9984077644507
434.5544554455446,203.05818402802305,8.777583097053416,8.777583097053418,171.34841580356505
435.2079207920792,203.06311079252927,8.347573333909923,8.347573333909924,171.62292994599196
435.86138613861385,203.07264934381146,8.953738573269192,8.953738573269192,172.10313398507074
436.51485148514854,203.20212359713793,9.078250158587784,9.078250158587785,172.1423263632947
437.16831683168317,201.63373380276713,8.927862665535882,8.927862665535882,171.99144002747383
437.82178217821786,202.84792856796827,8.655689914005801,8.655689914005801,172.73331862713422
438.4752475247525,203.50762783248834,9.514527943135775,9.514527943135773,172.66823970515085
439.1287128712871,202.6649484455272,9.424126517750741,9.424126517750743,172.87350300689954
439.7821782178218,204.91503108241633,8.456747009683378,8.456747009683378,173.18334240189168
440.43564356435644,203.07610546914228,8.862463249956656,8.862463249956656,172.6284159978276
441.0891089108911,200.57562615986276,9.526310230998217,9.526310230998217,171.56327978845718
441.74257425742576,202.6448223018445,7.916119140667206,7.916119140667208,174.2234593774338
442.3960396039604,202.5031097731121,9.153655101175426,9.153655101175426,174.208482288054
443.0495049504951,203.27687066651507,8.813996120041494,8.813996120041494,172.16267002562137
443.7029702970297,202.75211756311955,9.240262151645567,9.240262151645567,172.4835471649697
444.3564356435644,203.99266912021378,9.107544639395863,9.107544639395863,172.33850559227017
445.009900990099,204.13533168514286,8.898379893420042,8.898379893420042,173.5525715598656
445.66336633663366,204.1178093977332,8.734956568245938,8.734956568245938,174.40321105177438
446.31683168316835,203.9856207226883,8.779113053861622,8.779113053861622,172.88068958828512
446.970297029703,202.85240245238347,8.945947727615188,8.945947727615186,173.46336678847752
447.62376237623766,203.33423623604642,8.658338631375793,8.658338631375793,172.94061621274687
448.2772277227723,204.07356877456954,9.127434664828476,9.127434664828478,173.66360380143286
448.9306930693069,205.1423457702956,8.9263084539014,8.9263084539014,176.55060371464043
449.5841584158416,204.5195233480708,8.822973969690567,8.822973969690567,175.46164894516184
450.23762376237624,205.15347918723717,8.223811466791378,8.223811466791378,174.301414657856
450.89108910891093,203.74302420597914,9.134149655753728,9.13414965575373,175.31572087945136
451.54455445544556,205.06269862750966,9.279326459066123,9.27932645906612,174.735004711431
452.1980198019802,204.71793993342155,8.436618231434961,8.436618231434961,175.4102183255498
452.8514851485149,203.76837835145537,9.20878707127717,9.20878707127717,175.56051376762258
453.5049504950495,203.7057813614056,8.724160667833866,8.72416066783387,175.4812586510715
454.1584158415842,203.9785101023345,8.660828444093509,8.660828444093509,175.70822700012042
454.81188118811883,204.07575044864925,8.339665501320077,8.339665501320075,175.8854145657347
455.46534653465346,203.44637432890187,8.930932103730129,8.930932103730127,175.12947089476123
456.11881188118815,203.15660102767342,9.082332354919176,9.082332354919174,175.4969289385784
456.7722772277228,202.64647424475478,8.664391641301405,8.664391641301405,174.5548004086944
457.42574257425747,203.04584459642592,9.021046918133166,9.021046918133168,175.88564256521576
458.0792079207921,204.3694987652703,8.653654449041557,8.653654449041557,175.45636790113045
458.73267326732673,204.3275972219922,8.629783108217822,8.62978310821782,175.7121228792375
459.3861386138614,204.06589521600182,8.522888744784364,8.52288874478436,175.81273229894512
460.03960396039605,205.4209555683557,8.96269525707381,8.962695257073808,176.26169247581518
460.69306930693074,205.93654754077573,8.519331280299731,8.51933128029973,178.2828718694667
461.34653465346537,205.27407070987513,8.33931283927688,8.339312839276877,177.73452668066275
462.0,204.48164415135585,9.524929184414987,9.524929184414987,177.6031402568316
462.6534653465347,206.1129455885712,8.111946352953169,8.111946352953169,177.94225969966485
463.3069306930693,206.64021187562562,8.837742076643952,8.837742076643954,178.1085791754222
463.960396039604,207.11578832519106,8.60983387379213,8.609833873792132,177.68745146809488
464.61386138613864,207.18834976198306,9.480670182940475,9.480670182940477,177.96203517705328
465.26732673267327,204.6802849010416,9.050756784215528,9.050756784215528,178.506045745095
465.92079207920796,205.62722386498191,9.126760715469638,9.126760715469638,178.14378368602775
466.5742574257426,204.98961449846536,8.831240523724198,8.831240523724192,177.67869018458572
467.2277227722772,205.48907985314924,8.34264907412739,8.34264907412739,180.18467487026075
467.8811881188119,207.0493652879751,9.057666945177187,9.05766694517719,178.82479617081444
468.53465346534654,207.33149646387264,8.999127890287019,8.999127890287019,177.81049356289813
469.1881188118812,207.94993707881076,8.677196701813195,8.677196701813195,178.2146281084633
469.84158415841586,207.31380524405077,8.737096132695985,8.737096132695983,179.45091863555723
470.4950495049505,207.25016795316992,8.317968977188015,8.317968977188016,178.46810272593248
471.1485148514852,206.762738016792,8.689007993237594,8.689007993237595,178.3574027626105
471.8019801980198,206.79817885223767,8.587265772296595,8.587265772296593,179.29432130959393
472.4554455445545,206.33089782622847,9.016858963694242,9.016858963694242,179.3056226494144
473.1089108910891,206.53981973189033,9.002581355173202,9.002581355173202,179.7516616684795
473.76237623762376,205.85631617838763,9.219812853991044,9.219812853991044,180.05378900856235
474.41584158415844,206.4711753925287,9.0297042983937,9.0297042983937,180.12375074007673
475.0693069306931,206.05996571279132,8.349399494828587,8.349399494828589,179.05512399709724
475.72277227722776,205.31744436842206,8.944085673254337,8.944085673254337,181.0546130278037
476.3762376237624,206.48656226422963,9.601644679532116,9.601644679532116,180.92663779778314
477.029702970297,207.60091869853537,8.801013790688168,8.801013790688168,180.94769931298703
477.6831683168317,207.6057353230603,9.4522077094982,9.4522077094982,180.36225181531418
478.33663366336634,207.29483330580035,9.507127972267842,9.507127972267842,181.74531083625433
478.99009900990103,206.31368605018068,8.869652598699863,8.869652598699862,181.8157793914973
479.64356435643566,206.9051375070841,8.932357872954853,8.932357872954851,182.48383631393617
480.2970297029703,207.7512732751564,8.71423875646989,8.71423875646989,182.6666884523874
480.950495049505,208.0975268744165,8.646258048586745,8.646258048586747,182.99749328106523
481.6039603960396,209.33329559519518,8.842778613408752,8.842778613408752,183.23184274521736
482.2574257425743,207.75072697391283,9.147937548589375,9.147937548589375,183.50051992205636
482.91089108910893,208.97294040488677,8.736186525218253,8.736186525218251,183.85392705364433
483.56435643564356,208.76098508887605,8.871154313847022,8.87115431384702,184.65067085707415
484.21782178217825,209.06206801483742,9.086148794401321,9.086148794401321,184.7862787473817
484.8712871287129,208.9780370900295,8.434135437632763,8.434135437632763,183.6987363330238
485.52475247524757,209.02147553712712,9.277241110161935,9.277241110161937,182.6389182325679
486.1782178217822,208.84639192961745,9.004799166344519,9.004799166344519,183.80372246867316
486.83168316831683,209.0845142106244,9.108949285620564,9.108949285620566,183.61346336164027
487.4851485148515,208.95711706902944,9.104549944158347,9.104549944158345,184.67876132620137
488.13861386138615,208.7970787415717,8.99357618011284,8.993576180112841,184.62994078634222
488.79207920792084,209.712398346095,8.951968033152028,8.951968033152028,184.44883916311656
489.44554455445547,209.7349430038985,9.250175492377037,9.25017549237704,183.97963766776803
490.0990099009901,210.19416398751494,8.989077457213279,8.989077457213277,184.98812142917967
490.7524752475248,211.04968832598664,8.717556846423713,8.717556846423713,185.31567180071727
491.4059405940594,210.17578002256613,8.441896207837681,8.441896207837683,186.77244411733776
492.0594059405941,210.51959582647387,9.367978460324014,9.367978460324014,186.67924933184628
492.71287128712873,209.1180206839406,8.973043470661228,8.973043470661228,183.1469839596404
493.36633663366337,209.48435845179714,7.85596955777144,7.855969557771438,184.21402223373693
494.01980198019805,208.99527132476646,8.369304496176243,8.369304496176243,184.23431691211385
494.6732673267327,208.17954037297977,9.013844800799747,9.013844800799749,183.35787272593154
495.3267326732674,207.66077838798523,8.628291555389989,8.628291555389989,184.06869934389698
495.980198019802,207.95057797346377,9.24325654961186,9.24325654961186,184.21165494616145
496.63366336633663,210.07184902356178,9.255626508232439,9.255626508232439,183.65047730056543
497.2871287128713,209.01703013490274,8.608918394458476,8.608918394458476,185.14721924666705
497.94059405940595,207.98674918811727,8.89933555608674,8.899335556086742,185.17516404868138
498.59405940594064,209.52571127879602,9.262051628137424,9.262051628137426,184.99382524403012
499.2475247524753,210.76560582505132,8.549436473572106,8.549436473572106,185.05993266923775
499.9009900990099,209.7482417200857,8.277840465811412,8.277840465811412,186.8249071677601
500.5544554455446,210.413760161685,8.816141094516102,8.816141094516102,186.0566315375793
501.2079207920792,210.2002159558274,9.134534500958425,9.134534500958425,186.8471888042896
501.86138613861385,209.19565373264302,8.713563013025642,8.713563013025642,188.0469492373652
502.51485148514854,209.2359154121367,9.108223176497024,9.108223176497024,184.58899428028428
503.16831683168317,209.35969939777183,8.591718975100836,8.591718975100836,185.00904874601758
503.82178217821786,209.0876613059167,8.828637469978046,8.828637469978048,186.0740082330783
504.4752475247525,210.02743049206063,8.570294211519096,8.570294211519098,185.713289518803
505.1287128712871,209.64496788062647,9.564599025333818,9.564599025333816,186.6013906740506
505.7821782178218,209.96255897565115,8.81994503669359,8.81994503669359,185.8433921061211
506.43564356435644,210.47683850715106,8.648690853572637,8.648690853572639,186.76876141335586
507.0891089108911,209.82205271728648,8.889780154586097,8.889780154586097,186.04104782234444
507.74257425742576,209.60644657689576,9.299912793933945,9.299912793933945,185.51382144113975
508.3960396039604,210.55402069490114,8.879717794186034,8.879717794186034,184.83893466459753
509.0495049504951,209.73988467236805,9.144189608162318,9.144189608162316,185.74643352296627
509.7029702970297,209.2784765191451,8.74633830491304,8.746338304913042,187.04143872309618
510.3564356435644,207.98536852939102,9.32083987275896,9.32083987275896,187.44008904154327
511.009900990099,210.0930008320577,9.232858075828847,9.232858075828847,186.4950174747293
511.66336633663366,209.86539666077397,9.041070092424489,9.04107009242449,187.42562804282164
512.3168316831683,210.14843864665798,8.495413603996232,8.495413603996232,185.91068554375337
512.970297029703,210.99771328418245,8.743058406568947,8.74305840656895,186.42906499827996
513.6237623762377,210.31510542665865,8.844811415017531,8.844811415017533,187.17840285816968
514.2772277227723,210.23135438625872,9.157974252375332,9.157974252375332,188.57421141514763
514.9306930693069,211.53578222076078,8.936960389467766,8.936960389467766,188.82780807525737
515.5841584158416,211.587836873099,9.067171626331136,9.067171626331136,188.79317061301367
516.2376237623763,211.47713931963946,9.240351466726304,9.240351466726306,190.18334672200174
516.8910891089109,210.70089923722483,8.933021082469196,8.933021082469194,189.90898232398706
517.5445544554456,212.36575805503722,8.911394980712886,8.911394980712881,189.52338302654113
518.1980198019802,211.58354825423385,8.99135230578823,8.991352305788226,189.37768896652568
518.8514851485148,210.9699174422205,9.054071411656194,9.054071411656196,190.19001610479066
519.5049504950496,210.3670943281674,8.63952111807416,8.63952111807416,189.95569573631025
520.1584158415842,211.72696569681116,8.966972010322047,8.966972010322046,190.1931628440921
520.8118811881188,211.2217979081876,8.932084166419704,8.932084166419704,188.72180802765956
521.4653465346535,211.39279392300324,8.907343792853885,8.907343792853885,188.57951986341482
522.1188118811881,210.15094559662168,9.081656548070374,9.081656548070374,188.6201311406036
522.7722772277228,211.23681040734286,9.185614706806652,9.185614706806652,190.84400046164848
523.4257425742575,211.93015201656658,8.683303374891027,8.683303374891027,190.12871505882234
524.0792079207921,211.5596886890624,9.428494709900681,9.428494709900685,190.0170537987282
524.7326732673267,212.60801276146825,8.917062637520136,8.917062637520134,190.33179383478063
525.3861386138614,211.89462497506926,9.083459866231477,9.083459866231479,190.94059645170586
526.0396039603961,211.02481122404416,8.961341235140948,8.961341235140948,190.04975675138448
526.6930693069307,210.70939723278227,8.752762813252225,8.752762813252225,191.1923337066739
527.3465346534654,212.48453589353957,8.317713170855912,8.317713170855916,192.27627894786477
528.0,212.908831699325,9.178376195525763,9.178376195525765,189.71973322039756
528.6534653465346,211.89668580193367,8.795163710398944,8.795163710398944,191.52231548109188
529.3069306930694,211.60044328195676,8.721192257044565,8.721192257044567,190.59400928540023
529.960396039604,211.6239683703655,8.452829208288898,8.452829208288898,191.2571882532113
530.6138613861386,211.81593907207437,9.367121186506184,9.367121186506186,190.99817061862396
531.2673267326733,212.00847294740825,8.415546620555503,8.415546620555503,191.95052311339404
531.9207920792079,213.0071239838071,8.597110163251502,8.5971101632515,191.3774752181819
532.5742574257426,212.50895399516128,8.324447163133094,8.324447163133092,192.23276540371154
533.2277227722773,212.49840455924127,8.348415686785572,8.348415686785572,191.86726361459284
533.8811881188119,211.26126195633915,9.066745045902065,9.066745045902065,191.92483456832255
534.5346534653465,211.75903963500178,8.810587777651502,8.8105877776515,193.4805971505644
535.1881188118812,211.8673533193842,8.409842614807257,8.409842614807255,191.39611624672372
535.8415841584159,212.64654574082246,8.79444359941161,8.79444359941161,192.0510103747965
536.4950495049505,212.1569235973857,8.603703922272691,8.603703922272691,192.02637116806923
537.1485148514852,211.46531476191117,8.541059556736109,8.541059556736112,191.20212022045843
537.8019801980198,213.56112054036745,8.132592482760533,8.132592482760533,193.86000265378144
538.4554455445544,212.78799381214236,10.261890180852145,10.261890180852145,195.07613391214738
539.1089108910892,212.96346806927627,8.634312315669764,8.634312315669764,193.77022961427758
539.7623762376238,213.78397919867678,8.413525314178395,8.413525314178395,193.48316705882505
540.4158415841584,213.1239378844619,5.179022004003461,5.179022004003461,196.58661600525633
541.0693069306931,213.0228871146075,8.615185527970878,8.615185527970878,193.6357246435505
541.7227722772277,212.93697656070603,9.059869354230923,9.059869354230925,192.74611679922444
542.3762376237624,212.46669754944125,8.661455094694066,8.661455094694066,192.88222196777286
543.0297029702971,213.16546300615414,8.61414735996002,8.61414735996002,193.522646435734
543.6831683168317,213.45928881025844,8.702138979120424,8.702138979120424,194.5417229865983
544.3366336633663,213.57162687290858,8.38228253442544,8.38228253442544,193.2833401523757
544.990099009901,213.31025305650962,9.252254360349324,9.252254360349326,192.9124002804116
545.6435643564357,214.1705057458261,7.650111955022472,7.650111955022471,194.03794438984843
546.2970297029703,214.80394695578872,8.539229181028865,8.539229181028865,196.01217159949462
546.950495049505,213.73867102048433,9.465527508588577,9.465527508588576,194.43475945305877
547.6039603960396,215.2682849528488,8.519554802376636,8.519554802376637,197.23766474722615
548.2574257425742,214.10109246379164,8.94585716078386,8.945857160783863,196.25923927259657
548.910891089109,213.81438215918607,8.876367896394985,8.876367896394985,197.67933165802796
549.5643564356436,214.7010384139884,9.282581355711374,9.282581355711374,196.44210125831614
550.2178217821782,214.7815308500057,8.331682925242982,8.331682925242983,196.67449672959117
550.8712871287129,215.4026671461339,8.430528019371451,8.430528019371453,196.69651986886848
551.5247524752475,217.63982673709805,8.844974721373585,8.844974721373584,198.37546619371946
552.1782178217823,216.93979483938884,8.707546119237144,8.70754611923714,196.99547555013424
552.8316831683169,215.92438593363232,8.391852012625542,8.391852012625542,197.83360417638715
553.4851485148515,216.0277692019449,8.682725982793066,8.682725982793066,197.70857248281538
554.1386138613861,215.3225437545393,8.873769753894912,8.873769753894912,196.66377849180256
554.7920792079208,215.10723727603195,9.015285249023785,9.015285249023785,197.10256368220632
555.4455445544555,215.8074356028484,8.952704066398104,8.952704066398105,197.20547638579436
556.0990099009902,215.40033190322123,9.304560658076346,9.304560658076348,197.24249685558078
556.7524752475248,216.13849629389134,8.635602389765344,8.635602389765344,198.96789171422677
557.4059405940594,216.19780189843053,8.715852083995662,8.715852083995662,199.1240529852672
558.059405940594,216.02158009570255,8.61929407176904,8.61929407176904,201.55507851046565
558.7128712871287,218.16944903380184,8.439526123281386,8.439526123281388,201.4319486315694
559.3663366336634,217.29770909481718,8.767642695831404,8.767642695831402,199.95735060222927
560.019801980198,216.2290805542682,9.263093846958023,9.263093846958023,199.22855087180187
560.6732673267327,217.25280277235754,8.929618679307573,8.92961867930757,200.23671843538415
561.3267326732673,217.67296965806565,8.348640739412211,8.348640739412213,198.9245745499395
561.980198019802,216.4256625170897,7.429963831619002,7.429963831619002,202.85133399797306
562.6336633663367,217.06952498055293,9.622943963570647,9.622943963570647,200.4916610139272
563.2871287128713,216.04334150536778,8.76334383056611,8.763343830566114,198.84626286133698
563.940594059406,217.27985090977077,8.291318385116124,8.291318385116124,199.87848706716494
564.5940594059406,216.92254411625046,8.625988932233657,8.625988932233659,199.64813975573085
565.2475247524752,217.1086465092664,8.616319398345643,8.616319398345643,198.71774665926063
565.90099009901,216.65223459860167,9.263523224755145,9.263523224755145,199.68538948527305
566.5544554455446,216.8910344386363,9.101982234889949,9.101982234889945,200.00406458451917
567.2079207920792,216.72844264700004,8.327088264343628,8.327088264343628,199.95856122588378
567.8613861386139,217.1956216121689,8.657128804563152,8.65712880456315,200.861366044679
568.5148514851485,216.20594537898018,9.2939575254786,9.293957525478602,200.40412050005494
569.1683168316832,217.12182654600454,8.608464417596798,8.608464417596794,200.34345108797376
569.8217821782179,217.27182128714858,8.73965631908149,8.739656319081492,201.06380740450624
570.4752475247525,216.2733695791505,8.583369980744955,8.583369980744953,200.86264737696652
571.1287128712871,217.02903975480774,8.414030385605571,8.414030385605571,201.26279308571577
571.7821782178218,215.96970436467132,9.007250361028754,9.00725036102876,201.62184989522254
572.4356435643565,217.27563640726478,7.583204188278927,7.583204188278927,202.35271346091412
573.0891089108911,217.45530419818172,9.174687079190447,9.174687079190448,200.00566180228535
573.7425742574258,217.76421240897065,8.56894591348504,8.568945913485038,200.71840046816487
574.3960396039604,218.4027197509219,8.901133508726197,8.901133508726197,200.94968492066494
575.049504950495,217.89204222359578,8.718477144759593,8.718477144759595,202.1721764859353
575.7029702970298,218.16578487019677,8.526948741079453,8.526948741079451,202.87247761455453
576.3564356435644,218.49883184498648,7.793602291810896,7.7936022918108945,201.11243863874375
577.009900990099,217.8582672454288,8.77912382512608,8.779123825126081,201.66927150285608
577.6633663366337,218.38396354690974,9.29390983461953,9.293909834619528,204.0986324682103
578.3168316831683,217.71087955337143,8.983729545322738,8.983729545322738,202.02555495338208
578.970297029703,218.14545625272876,8.34990335576107,8.349903355761072,202.63861154949942
579.6237623762377,218.29217903105024,9.083734571546627,9.083734571546625,201.589817771816
580.2772277227723,218.37439500073984,8.91426662832611,8.914266628326109,202.66440640746384
580.9306930693069,218.04349959616243,8.813184588977322,8.813184588977323,204.09686319767903
581.5841584158416,218.46696995108135,8.991933510873269,8.991933510873265,202.8703039447282
582.2376237623763,218.22026004381868,8.452190829716084,8.452190829716088,202.55268855052338
582.8910891089109,218.38586043743794,8.413448971239864,8.41344897123986,203.25737705020723
583.5445544554456,218.54971378078125,8.561503341806468,8.561503341806464,203.31059669047653
584.1980198019802,217.91726184098073,9.195132073970376,9.195132073970372,204.20765952530817
584.8514851485148,217.56283150893566,8.64027185634868,8.64027185634868,203.2244773998497
585.5049504950496,218.16922368416814,8.738427996374318,8.738427996374321,202.6813488140757
586.1584158415842,218.63718170647306,8.78096468214487,8.780964682144873,202.92760474045053
586.8118811881188,218.1924445734251,8.67723404576492,8.677234045764921,204.1244088586771
587.4653465346535,218.17497679964853,8.924278115185663,8.92427811518566,203.35415844594127
588.1188118811881,219.14583115434826,8.609763287340112,8.609763287340108,203.9392130324606
588.7722772277228,218.63095453104285,8.379528540350103,8.379528540350103,205.19556643155266
589.4257425742575,219.5053801088313,8.206079918951305,8.206079918951309,203.57327646099606
590.0792079207921,218.49769045863465,8.275012786221735,8.275012786221733,204.8069341166972
590.7326732673267,218.17325609544125,9.00866254784787,9.008662547847866,204.76354424558014
591.3861386138614,220.76345262937642,7.053221381942182,7.053221381942184,204.2327386550125
592.0396039603961,217.86922812247334,9.365128300220663,9.365128300220663,209.52780337793146
592.6930693069307,218.7673232270462,9.451258537640594,9.451258537640589,204.4693541058196
593.3465346534654,218.6528832646747,8.314491786210596,8.314491786210596,203.4176073883201
594.0,217.59528708439808,9.043542416005526,9.043542416005527,204.51448561740793
594.6534653465346,218.65948644683263,8.986472903132373,8.986472903132375,204.48615398069987
595.3069306930694,219.5184187140129,9.118889151589782,9.118889151589782,203.83832110271578
595.960396039604,218.78216151804767,9.112873384446608,9.112873384446608,203.21604668805108
596.6138613861386,217.96151828620538,9.212247518071239,9.212247518071239,206.49712822279852
597.2673267326733,219.47717919934553,8.879863746271843,8.879863746271843,204.95255815786422
597.9207920792079,219.92703088525744,8.417256769849255,8.417256769849255,205.49871144829734
598.5742574257426,216.47820636798977,9.005227057155377,9.005227057155377,212.2732548158972
599.2277227722773,220.23307120957364,8.140076603555425,8.140076603555423,205.5575159907041
599.8811881188119,220.3191270835077,9.354341811362971,9.354341811362971,205.45754934835117
600.5346534653465,219.81688968863614,8.794418597435604,8.794418597435598,205.98371167294553
601.1881188118812,220.62993472454838,7.757695513746539,7.757695513746539,207.62470660567732
601.8415841584159,220.63120107211972,8.883064397331017,8.883064397331017,206.91146608873692
602.4950495049505,220.10597219824734,8.518454301581267,8.518454301581269,206.1940006859598
603.1485148514852,219.1033423146534,8.35664785909041,8.35664785909041,205.57737336589992
603.8019801980198,220.01990242260553,8.34998085329969,8.349980853299696,207.087080276909
604.4554455445544,220.1442923037815,8.898058262610272,8.898058262610274,205.34694002679862
605.1089108910892,219.47233665339235,8.775043892645229,8.775043892645227,206.9418273541629
605.7623762376238,220.09388494776164,9.087371011227127,9.087371011227127,206.59759727895377
606.4158415841584,220.713351971881,8.380397226795903,8.380397226795903,206.99982453612216
607.0693069306931,221.43584645113964,8.638599785641967,8.638599785641967,208.7808967420799
607.7227722772277,221.15553181244337,8.89898492296254,8.898984922962544,207.4440119561678
608.3762376237624,220.89454170433618,8.747627281662979,8.747627281662979,207.29626042572986
609.0297029702971,221.40669035231883,8.613576398671992,8.613576398671992,207.6173199005893
609.6831683168317,222.36634202586623,8.897542142793744,8.897542142793746,208.35193083713634
610.3366336633663,222.17392459031467,9.998196639330123,9.998196639330123,207.65643745369513
610.990099009901,221.192046620565,8.819327092924746,8.819327092924746,207.6210397262381
611.6435643564357,220.78178696565334,8.23043177306785,8.23043177306785,209.48292118889648
612.2970297029703,221.74684712412062,9.123895617595142,9.12389561759514,208.74721706674978
612.950495049505,221.64163186439524,8.788106992236568,8.78810699223657,207.28389971188756
613.6039603960396,222.39660468401397,8.000020426123442,8.000020426123443,209.47686890348007
614.2574257425742,221.4883489236814,7.975116496814078,7.97511649681408,211.38993445304604
614.910891089109,221.69514932903292,8.536467037110322,8.536467037110322,208.85307916327795
615.5643564356436,221.49729130528027,8.275485111023835,8.275485111023832,207.9591773468913
616.2178217821782,221.35052912690546,8.266779664862922,8.266779664862925,208.77827758911394
616.8712871287129,221.31493007070108,8.635483275796231,8.635483275796233,208.5087783503645
617.5247524752475,220.8980858843994,8.663114425426425,8.663114425426425,207.23031905932456
618.1782178217823,221.79624559646845,8.144463706292731,8.144463706292733,209.16270855177928
618.8316831683169,222.0841946172547,8.999078628033862,8.999078628033862,209.3315725824158
619.4851485148515,221.97719290259138,8.667692299724129,8.667692299724129,211.04927497578527
620.1386138613861,221.61715852505017,8.811895972581858,8.811895972581858,210.62511044191962
620.7920792079208,220.76783180039422,8.861141998940914,8.861141998940914,210.70655285619176
621.4455445544555,222.46651011250862,8.9521948105971,8.9521948105971,210.690185722199
622.0990099009902,221.9979225883619,8.233241695601917,8.233241695601915,210.55165530140525
622.7524752475248,222.41527375960612,8.947272273929013,8.947272273929013,210.20569432090917
623.4059405940594,223.50675015050896,8.582262114668621,8.582262114668623,210.5081314879646
624.059405940594,221.78617984906248,8.835487106779564,8.835487106779565,210.23274242095843
624.7128712871288,222.31849670915324,8.755131987370318,8.755131987370321,209.68914333789024
625.3663366336634,222.52650833768578,8.537511309337669,8.53751130933767,210.62588811705805
626.019801980198,222.17115482526472,8.643938142310661,8.643938142310661,210.26132390829108
626.6732673267327,222.0451770406464,8.60839135506222,8.608391355062219,211.74781732436998
627.3267326732673,222.24969370595633,8.853911049725681,8.853911049725687,210.51707985833738
627.9801980198021,221.83276124088394,9.03711889676339,9.03711889676339,210.56452238825844
628.6336633663367,222.43557783530196,12.292100027327294,12.292100027327297,212.2895698891027
629.2871287128713,222.40844940373637,8.97956397659652,8.97956397659652,210.58269521443648
629.940594059406,221.95520033641054,8.740620414872579,8.740620414872579,210.66872312638085
630.5940594059406,222.83855828239837,8.948398353096103,8.948398353096104,209.61252272161667
631.2475247524753,222.70136622116402,8.278434297278123,8.278434297278123,211.47091374812345
631.90099009901,221.98118270415856,9.394260095659643,9.394260095659641,211.9152725861209
632.5544554455446,222.0535350020158,8.522678766790497,8.5226787667905,211.2228816356333
633.2079207920792,222.88908471566205,9.658452755901184,9.658452755901179,211.57044463115008
633.8613861386139,222.14773441300107,9.057203115266834,9.057203115266834,211.81205384174712
634.5148514851485,222.76673697591715,9.21088383885367,9.210883838853665,211.59819305935434
635.1683168316832,223.60225860946795,9.050351611155016,9.050351611155017,211.8482337819683
635.8217821782179,223.0236678605808,8.831113720398667,8.831113720398667,211.69876975299638
636.4752475247525,222.59244112880796,8.934165971010664,8.934165971010668,212.1508084756936
637.1287128712871,223.57598848997247,8.810057946643644,8.810057946643646,213.06898812158803
637.7821782178218,225.06153342725972,8.873689700655614,8.873689700655618,212.453240500799
638.4356435643565,224.67934975820316,8.45923612892994,8.459236128929938,212.18563782603613
639.0891089108911,224.00261720102895,9.090160016540157,9.090160016540157,212.06128314615526
639.7425742574258,223.4662570614443,8.679338310097329,8.679338310097329,212.14952597938887
640.3960396039604,222.7972645261927,8.83556495032419,8.83556495032419,214.18573880577605
641.049504950495,223.33255366162115,8.305354356806252,8.305354356806252,213.17353824252217
641.7029702970298,223.08369276326283,7.918912227982501,7.918912227982502,212.42347889688327
642.3564356435644,222.72902461443044,8.498917559650765,8.498917559650765,213.69907454154267
643.009900990099,222.84387166124733,9.144596944136056,9.144596944136055,213.03606136309992
643.6633663366337,223.22440035972554,8.944171198287112,8.944171198287112,214.06999025705974
644.3168316831683,223.16593766302148,9.006736212655918,9.006736212655918,213.6188479629014
644.970297029703,223.3335725488107,8.593855540344926,8.593855540344926,214.07963380312046
645.6237623762377,223.07288381824821,8.94167782226163,8.941677822261632,213.3845684029935
646.2772277227723,223.83212197370622,9.157554348472772,9.157554348472773,214.08229557464284
646.9306930693069,223.53244811259148,9.116416102932787,9.116416102932787,214.60791840572867
647.5841584158416,223.97723596271746,8.981105628939888,8.981105628939886,213.67867234420257
648.2376237623763,224.73007484248143,8.548352431241117,8.548352431241117,214.58523083590111
648.8910891089109,225.9765234952359,8.672932240393422,8.672932240393425,213.50817798591018
649.5445544554456,224.64930554001577,8.71269033384692,8.712690333846922,215.0203542879492
650.1980198019802,225.43920391557364,9.414929437418692,9.414929437418694,214.82999673863418
650.8514851485148,224.32936719721778,11.57089881300886,11.570898813008862,219.42691809297165
651.5049504950496,224.54085488762414,9.08741545770624,9.08741545770624,215.8622432232074
652.1584158415842,225.789443994836,8.588357391376336,8.58835739137634,215.48041297674962
652.8118811881188,224.29011930160624,8.262522467135428,8.262522467135428,217.79945538889024
653.4653465346535,225.04327864676813,8.519685865703263,8.519685865703263,216.94013653179215
654.1188118811881,224.1940417187472,9.28708433654188,9.287084336541882,217.5502738353279
654.7722772277228,224.82238929084906,9.120743908646254,9.120743908646254,219.11857120147442
655.4257425742575,233.45025071370947,11.626984197281805,11.626984197281807,214.20741251496443
656.0792079207921,225.46299598252574,8.713783322799342,8.713783322799342,219.05962816690825
656.7326732673267,226.00765578998562,8.679889933076206,8.679889933076206,217.2162832971704
657.3861386138614,225.13618734479658,9.064582116249289,9.064582116249287,216.2234540301545
658.0396039603961,225.55347702484275,8.654016449277078,8.65401644927708,216.68704290875027
658.6930693069307,225.23730997287166,9.124522346134608,9.124522346134606,216.49406924016725
659.3465346534654,224.64834938609602,8.364139431342757,8.364139431342757,217.82220692059252
660.0,224.66555065324204,9.456207212261733,9.45620721226173,217.42491784901284
