z in mm,sigma xx in mm2,sigma xy in mm2,ysigma yx in mm2,sigma yy in mm2
660.0,231.33188614627682,9.535176169377511,9.535176169377507,205.92372239337155
659.3202883625129,199.71855245819546,11.986152451687861,11.986152451687861,165.81866303748717
658.6405767250258,199.61932674967818,11.711426872889444,11.711426872889442,162.83800501872585
657.9608650875387,197.76485455881732,11.368057193619862,11.368057193619864,163.9706019775069
657.2811534500515,198.71875090005443,11.197265251063726,11.197265251063728,164.79048241706894
656.6014418125644,200.03296264955674,11.78366018454251,11.783660184542512,166.20450950973057
655.9217301750772,199.4240951051263,11.619320096704095,11.619320096704095,165.21441321195172
655.2420185375901,199.69072456706323,12.096104465126405,12.096104465126405,165.70783051970022
654.562306900103,199.84039929009705,11.249212640795655,11.249212640795653,165.39650189410182
653.8825952626158,199.05689876504937,11.649409583089822,11.649409583089822,164.53754755071648
653.2028836251287,199.2586617587348,10.865696819365327,10.865696819365324,165.85292550565967
652.5231719876416,200.9211390474873,11.643234817405013,11.643234817405013,166.74174186246768
651.8434603501545,200.3662042971919,11.669014984120938,11.669014984120938,167.10786753238966
651.1637487126674,206.23627759090363,10.670228292415613,10.670228292415613,175.8830672760337
650.4840370751803,204.97244441339646,10.97321869683359,10.97321869683359,173.7000361314796
649.8043254376931,205.23098892669506,11.06917622548745,11.06917622548745,173.28773917312327
649.124613800206,205.56366864179697,11.219143103679222,11.219143103679222,175.2641999363369
648.4449021627188,205.6291720270387,11.035078166217934,11.035078166217934,176.14899447698156
647.7651905252317,205.9617917639552,10.663075810871863,10.663075810871861,175.6383951541272
647.0854788877446,206.28307953741614,10.65715631923827,10.65715631923827,174.56502789261364
646.4057672502574,205.64861172098472,11.28815466215633,11.28815466215633,175.5564629328305
645.7260556127703,204.89601670569303,11.350399348726492,11.350399348726489,177.84698807168473
645.0463439752832,205.9806993883893,10.661467048047085,10.661467048047086,176.31260585294294
644.3666323377961,205.0926103723554,11.326449127568656,11.326449127568658,175.99214341439645
643.686920700309,206.0296889733339,11.180338617411248,11.180338617411248,175.85155356351706
643.0072090628219,205.97118967911732,11.110057730045387,11.110057730045382,176.90825210621958
642.3274974253347,206.38161409442927,11.571007791439278,11.571007791439277,175.97736079863873
641.6477857878476,206.53722185089612,11.540812978940338,11.540812978940338,176.55641034554245
640.9680741503605,205.34587374891,11.113728865296263,11.113728865296263,176.79565887115692
640.2883625128733,206.36805239765303,11.267882005898908,11.267882005898908,176.50479073649024
639.6086508753862,207.221099419081,10.701420353087608,10.701420353087608,178.09354330084662
638.928939237899,206.31453197909804,11.157678392027467,11.157678392027467,178.78771959898174
638.2492276004119,206.43606520328572,11.213338129686026,11.213338129686028,179.45207765274506
637.5695159629248,206.65354109464863,11.758821568859384,11.758821568859384,176.89060869196962
636.8898043254377,205.63012252110053,11.52003595720746,11.52003595720746,179.1236890429266
636.2100926879506,207.46714262640086,10.863258510531123,10.863258510531121,179.4494713922786
635.5303810504635,206.52267803133526,10.743669115082156,10.743669115082152,180.3326189681915
634.8506694129763,206.66189648478814,11.227709854326616,11.227709854326617,180.31884851132378
634.1709577754892,206.96425569537928,11.717806035307495,11.717806035307495,179.7515103260134
633.4912461380021,205.65132559587786,11.629985911654794,11.629985911654794,178.08777871563532
632.8115345005149,205.73332889362106,11.893292461981368,11.893292461981368,180.0188757785027
632.1318228630278,205.41831366846108,11.294591262300942,11.294591262300944,178.89091724697514
631.4521112255406,206.2665586159906,11.009134897693336,11.009134897693338,180.58919791357215
630.7723995880535,205.77271866819962,11.29088171691464,11.29088171691464,180.40085236434857
630.0926879505664,207.1306558784178,10.906264245996018,10.90626424599602,181.11876604263156
629.4129763130793,206.89038873426819,11.308389296455733,11.308389296455731,181.13030790093433
628.7332646755922,206.94110142997707,11.510668397834426,11.510668397834428,182.14415120813655
628.0535530381051,192.4981784996977,12.283728529014775,12.283728529014777,164.20881813287954
627.373841400618,191.09557733285564,11.109769357012485,11.109769357012485,164.4655973938361
626.6941297631308,191.53572816437128,12.600995362258944,12.600995362258946,163.878897092156
626.0144181256437,191.907195002358,12.027965696382493,12.027965696382493,164.35710417327965
625.3347064881565,191.66057687856073,13.336833805936367,13.336833805936367,162.0671280323204
624.6549948506694,190.30996549535567,12.792054518537645,12.792054518537645,163.61083878522192
623.9752832131823,189.5845127400356,12.540383968717789,12.54038396871779,162.56197622479067
623.2955715756951,190.3383797645315,13.252829935573335,13.252829935573335,161.55374477026348
622.615859938208,190.75861366649363,12.780391255654347,12.780391255654347,162.1566866789205
621.9361483007209,191.37112242029553,12.509920205593295,12.509920205593295,164.3219643603178
621.2564366632338,189.9340009400644,12.885205051465592,12.885205051465586,163.99386438317813
620.5767250257467,190.66624632483453,12.462148643079624,12.46214864307963,165.73841394154144
619.8970133882596,189.62772654067416,13.752038751920319,13.75203875192032,164.68860425502373
619.2173017507724,191.5085011280455,12.89466073641865,12.894660736418649,165.24829749383025
618.5375901132853,191.24187807666183,13.402055203598653,13.402055203598657,163.82717061888582
617.8578784757981,190.70720548126397,12.456177208267594,12.456177208267594,166.99051669376982
617.178166838311,191.50621548199112,12.888485067559598,12.888485067559602,166.33459381206345
616.4984552008239,191.77644899424425,12.016260858321075,12.016260858321075,166.88257286596652
615.8187435633367,190.9375468014967,13.2818261530688,13.2818261530688,166.8171247923942
615.1390319258496,190.546474427452,13.004861179981463,13.004861179981463,167.1961539546985
614.4593202883625,190.90121570279118,13.107484217196989,13.107484217196989,167.64417766189817
613.7796086508754,191.86021766277528,12.594504244535003,12.594504244535003,168.160112226292
613.0998970133883,191.92882173715637,13.54687515200589,13.546875152005887,170.49205995000173
612.4201853759012,192.12988867186056,12.352354669445713,12.352354669445718,167.7593801878021
611.740473738414,191.37517542913793,13.067137920955293,13.067137920955293,168.16783081100485
611.0607621009269,191.2141295978995,13.03815897236285,13.03815897236285,168.25266225663236
610.3810504634398,191.99895994249124,13.041863396473163,13.04186339647316,169.1780822429554
609.7013388259526,191.85574499416646,13.46820348129422,13.468203481294212,169.43792329233366
609.0216271884655,191.16740464410643,12.819284231252077,12.819284231252077,170.439994144262
608.3419155509783,193.09687273541115,13.025024748061755,13.025024748061755,170.98293642927692
607.6622039134912,193.15181989269797,12.900564471191323,12.900564471191323,169.86750210258728
606.9824922760041,191.86742358067875,13.125611781166187,13.125611781166189,169.90223913498983
606.302780638517,193.31826956073502,13.69219627305499,13.69219627305499,170.70906644648625
605.6230690010299,192.06810429985492,12.644888362821677,12.644888362821677,171.65132232953874
604.9433573635428,190.51122391592,13.709690076987956,13.709690076987956,172.38174959743176
604.2636457260556,193.3070566759597,13.18405966464827,13.184059664648268,172.71491641659082
603.5839340885685,192.6048036900928,14.06281270865259,14.062812708652588,171.64150613621024
602.9042224510814,191.02834809221298,13.438544796235059,13.438544796235059,172.03762311861217
602.2245108135942,191.90985850374304,12.986380685493257,12.986380685493257,172.48129515905717
601.5447991761071,192.13918854259185,13.597946523673203,13.5979465236732,171.06549881948476
600.86508753862,192.3493565088453,12.916216438488899,12.916216438488899,172.6956364249661
600.1853759011328,192.21657649585282,13.13755220524079,13.137552205240793,172.1831198052822
599.5056642636457,191.77806001572435,13.599661863735674,13.599661863735674,171.31263700899999
598.8259526261586,190.94060489821572,13.687829559713505,13.687829559713508,172.04868776432966
598.1462409886715,192.41703380763667,13.222879538404129,13.222879538404124,172.9151292100866
597.4665293511844,192.5052719901319,14.20201995943792,14.202019959437921,172.4463786855002
596.7868177136972,192.0386024912704,13.660196561390219,13.660196561390219,172.37477342085776
596.1071060762101,193.16720851903727,13.249434574742454,13.249434574742454,172.6746956814971
595.427394438723,192.19308204764496,13.407388702335844,13.407388702335844,173.01911259839216
594.7476828012359,193.1582236662611,13.660895255823627,13.660895255823629,174.55392555541067
594.0679711637487,192.46313616433105,13.03610688922574,13.03610688922574,175.86073738214878
593.3882595262615,192.36686300015174,13.482116714157058,13.482116714157057,175.22375172013216
592.7085478887744,192.9444479844116,13.588989469210182,13.588989469210182,176.38942735186959
592.0288362512873,192.73213870300557,13.505983291970166,13.505983291970164,174.8500349945473
591.3491246138002,192.6190906376646,13.125369665653945,13.125369665653942,175.61549129159883
590.6694129763131,192.88300972900393,14.439039298903445,14.439039298903449,176.13986227524768
589.989701338826,192.99734130208444,13.986438703400356,13.986438703400355,176.4171136674958
589.3099897013388,193.46161110762284,13.385387920270308,13.385387920270306,175.96845679353214
588.6302780638517,193.45342110200784,13.090664143285254,13.090664143285254,177.46721942071736
587.9505664263646,192.69886589745724,13.120225258176715,13.120225258176719,176.2067074785503
587.2708547888774,191.84400309243802,13.397384937668257,13.397384937668257,176.6489131907978
586.5911431513903,192.1645839446471,13.532628770621853,13.532628770621853,175.72481463176993
585.9114315139032,191.38382127984073,13.776422296803718,13.776422296803721,176.04723499674128
585.231719876416,192.01407405612326,13.942355312627813,13.942355312627807,176.50193013735776
584.5520082389289,193.57134733423229,13.45365284886078,13.453652848860777,178.7282898996996
583.8722966014418,192.33777868780484,14.217799102622664,14.217799102622669,177.90629974991825
583.1925849639547,192.9273122177991,13.80008333409228,13.800083334092276,179.22948042052172
582.5128733264676,192.07632786091457,14.11886008979013,14.118860089790129,178.58707607530843
581.8331616889805,192.7216752867397,13.845509133494078,13.845509133494085,179.28291582810016
581.1534500514933,192.64270199116643,13.956319586552281,13.956319586552281,178.3304528721631
580.4737384140062,191.25439370482306,13.779937645750774,13.779937645750774,178.22012906376708
579.7940267765191,191.44584288890306,13.642956918627577,13.642956918627577,178.68000772953528
579.1143151390319,192.433837233306,13.68762855953752,13.68762855953752,179.18326308988597
578.4346035015448,191.4290915336161,14.088992590608731,14.088992590608726,178.78833574843878
577.7548918640576,191.38828425827893,13.977261955757383,13.977261955757383,179.490099600458
577.0751802265705,191.85982724957418,13.088253595557093,13.088253595557093,178.61440720904002
576.3954685890834,192.17899279290455,13.984400320761651,13.984400320761651,179.33187697374464
575.7157569515963,191.70657593873585,14.149151448862849,14.149151448862849,180.2059982009296
575.0360453141092,190.86793941441528,13.819601240789734,13.819601240789732,181.40781279325074
574.3563336766221,191.285622679079,13.71100560427192,13.711005604271918,180.79025864163614
573.6766220391349,191.69544482874156,13.836547084769892,13.836547084769894,180.40556845518813
572.9969104016478,191.90915283206087,13.799528609798001,13.799528609797997,180.24904450780727
572.3171987641606,190.78453818693316,13.71318586811655,13.71318586811655,181.60099168049067
571.6374871266735,191.4110109442705,13.986111964243918,13.986111964243918,180.39891835630354
570.9577754891864,191.61109039543325,14.039163290539973,14.039163290539973,180.70516107474364
570.2780638516992,190.98698102682533,14.347921047346606,14.347921047346606,181.43105336300087
569.5983522142121,190.37045447762642,14.260906027210357,14.260906027210357,181.13508879450663
568.918640576725,191.08689072400745,13.996215877701403,13.996215877701403,180.61626706174442
568.2389289392379,190.19307112708486,14.42059837185805,14.420598371858052,181.82362313272034
567.5592173017508,190.64949663476267,14.508752401853542,14.508752401853544,181.6340851224286
566.8795056642637,190.80850751192787,14.190354277134652,14.190354277134652,182.71950531683805
566.1997940267765,191.2203889457183,14.507417086066615,14.507417086066619,181.9240941539332
565.5200823892894,191.14762505601107,14.304171378816308,14.304171378816308,181.87611492161497
564.8403707518023,189.60791536892768,14.292645867847517,14.292645867847519,181.72857433821443
564.1606591143152,190.31423663221827,13.81104797271386,13.811047972713855,182.09192678912845
563.480947476828,189.72229794189744,14.558971035694503,14.558971035694498,184.02165879201402
562.8012358393408,190.03964844658765,14.401017871104033,14.401017871104031,182.9214054403675
562.1215242018537,189.9101153031812,14.11809655080242,14.11809655080242,184.0303761089576
561.4418125643666,189.83465487645657,14.518487662519108,14.518487662519103,182.63024447891368
560.7621009268795,189.90048452637163,14.396805862628248,14.396805862628243,182.47823164566498
560.0823892893924,189.31083934402184,14.264547986426233,14.264547986426233,182.8282795158215
559.4026776519053,189.4922504582081,14.81406472134685,14.81406472134685,183.17217045281933
558.7229660144181,189.13266004236937,14.70262720153672,14.70262720153672,182.6488783874504
558.043254376931,189.82657247318807,14.72334537627039,14.723345376270387,183.64797727909848
557.3635427394439,190.01689924895373,15.198099127648153,15.198099127648153,183.53712170476769
556.6838311019567,189.74662596400844,15.061563956552039,15.061563956552039,184.37229185854505
556.0041194644696,189.64719033518097,14.510018898990477,14.510018898990474,184.86085192445054
555.3244078269825,189.47996428038505,14.376812726560507,14.376812726560507,184.99960344039633
554.6446961894953,189.87848063861074,14.891091848872,14.891091848872003,185.88482690208008
553.9649845520082,189.12434534052917,14.268172511900076,14.268172511900074,183.76405711957827
553.2852729145211,189.4645459538175,14.771991949680814,14.771991949680816,184.78056071785247
552.605561277034,190.14001610032673,14.384729574341788,14.38472957434179,185.8322217388171
551.9258496395469,190.64495752728985,14.821432663884453,14.821432663884453,185.58513807634844
551.2461380020598,189.2912732382327,14.429089038772746,14.429089038772748,184.6249172502243
550.5664263645726,189.41893658379598,14.794600414816065,14.794600414816072,185.27562094797338
549.8867147270855,188.76853608525877,14.47174691702532,14.471746917025325,185.66516562374807
549.2070030895984,189.41183577987695,14.663182728286259,14.663182728286259,186.37626648730745
548.5272914521112,189.131391077586,14.95365234349178,14.953652343491783,185.85098561836307
547.847579814624,189.06974730084954,14.66531199377265,14.665311993772645,186.2599624865737
547.1678681771369,189.38032271691682,14.908668208204363,14.908668208204366,186.55407949765024
546.4881565396498,189.06386129537353,15.064756749223564,15.064756749223564,187.68761459970693
545.8084449021627,188.25432352564567,14.62164227357799,14.62164227357799,187.4954401252825
545.1287332646756,188.95918914283354,14.65200361327168,14.65200361327168,186.23195384542052
544.4490216271885,189.14247832654712,15.344352752006,15.344352752006001,188.25849044780418
543.7693099897014,189.33177379005247,14.76535006886565,14.765350068865654,186.41976460757115
543.0895983522142,189.25931611640826,14.871307521951216,14.871307521951216,187.25052076309254
542.4098867147271,188.9448692147082,14.81000046928945,14.81000046928945,187.02637283565255
541.7301750772399,188.48613535225593,15.189263509313935,15.189263509313935,187.7978193426483
541.0504634397528,188.49888986205806,15.309348020015955,15.309348020015955,187.50857689537062
540.3707518022657,189.06741655220426,15.090107642711581,15.090107642711581,188.18762547074883
539.6910401647785,188.33785326279767,15.299357592673541,15.299357592673543,187.94175960625995
539.0113285272914,188.12063372464976,14.7653466789545,14.7653466789545,189.13006669235455
538.3316168898043,188.19833090317593,14.826932307924908,14.826932307924908,188.38104682782827
537.6519052523172,189.29487721616306,14.664652254235746,14.66465225423575,188.2570012098699
536.9721936148301,188.86221229136814,15.158063624475814,15.158063624475812,188.56128531769332
536.292481977343,188.41949515608428,14.486077936478505,14.486077936478505,187.90915134664806
535.6127703398558,188.03501841005823,15.327599803310198,15.327599803310203,188.70129992760457
534.9330587023687,188.06874126286726,15.093749376085123,15.093749376085123,189.28046746492794
534.2533470648816,187.6471590391146,15.031360899112741,15.031360899112743,189.41166832112313
533.5736354273945,188.2650509515963,15.430858616019204,15.430858616019204,189.91031603775224
532.8939237899073,187.06790887605223,14.899416315317255,14.899416315317255,188.83206032202594
532.2142121524201,187.57173769211312,15.22260454395563,15.22260454395563,189.35872751526335
531.534500514933,186.5699943110546,14.939284350971061,14.939284350971063,189.8697636693447
530.8547888774459,187.0734285374649,14.827380905842077,14.827380905842077,190.13646672474266
530.1750772399588,187.54118299940473,15.290549573856424,15.290549573856424,189.7122564742864
529.4953656024717,187.4145041936394,15.664023557253396,15.664023557253394,190.92912408458298
528.8156539649846,187.05343313661612,15.138881910253428,15.138881910253428,189.47057005091378
528.1359423274974,187.09084877914376,15.337885218013204,15.337885218013204,190.65016312598223
527.4562306900103,187.27062818954295,15.899420059628431,15.899420059628433,190.61463214933534
526.7765190525231,187.22860070304088,15.597105074528281,15.59710507452828,190.66035500571962
526.096807415036,186.7617171594294,15.033140121455931,15.033140121455927,190.86823025835824
525.4170957775489,187.47896596003048,15.504452292546977,15.504452292546977,190.7933703985553
524.7373841400617,186.59964619885832,15.498975987934388,15.498975987934392,191.30939608672136
524.0576725025746,187.86487402008316,15.607700566294232,15.607700566294234,191.18504877249208
523.3779608650875,186.82157035499384,15.707822475131072,15.707822475131072,191.65503511357224
522.6982492276004,186.96788978294026,15.607403775909109,15.607403775909109,191.84656361680288
522.0185375901133,186.43526963243622,15.43389990833397,15.433899908333974,191.65136243971492
521.3388259526262,187.52479122974404,15.5758944156607,15.5758944156607,191.78511108913088
520.659114315139,187.0666490424681,15.818319184611987,15.818319184611987,192.68091478410656
519.9794026776519,187.12476297280023,16.139066701459022,16.139066701459022,192.3236214136764
519.2996910401648,185.36334995275809,15.983299683502768,15.983299683502771,191.6109755098733
518.6199794026777,186.79086293614415,16.033807138211433,16.033807138211433,192.1020560287461
517.9402677651906,186.35309459877925,15.53981654155742,15.539816541557418,191.4202773379494
517.2605561277034,186.08045853979817,16.179150056995347,16.179150056995347,192.50997465561338
516.5808444902162,186.022588737687,15.69457579573858,15.69457579573858,192.68672030042976
515.9011328527291,185.84199144831024,15.927107305726736,15.927107305726738,192.80663972829817
515.221421215242,186.6338141433023,15.765747919916985,15.765747919916983,193.36554881452335
514.5417095777549,186.73630980668983,15.940159446043893,15.940159446043895,192.4267453868155
513.8619979402678,187.16847929500773,15.904419102357789,15.904419102357789,193.32554141115133
513.1822863027807,186.71160242904315,15.45744945082344,15.457449450823436,193.30333377879165
512.5025746652935,186.36042005297506,15.344634493507513,15.344634493507513,194.06324971749095
511.8228630278064,186.31818046305102,15.902706673615015,15.902706673615015,193.54665728815294
511.14315139031925,186.8516469333295,16.109253698729397,16.109253698729393,194.10117502752925
510.46343975283213,186.54602073792978,16.13257441570384,16.132574415703843,194.73179956686374
509.78372811534496,186.77714568356436,15.794286877404364,15.794286877404367,194.44465798587512
509.10401647785784,186.2151718759837,16.148576799843447,16.14857679984345,194.42558692000804
508.4243048403707,186.64599774505987,16.066064008000133,16.06606400800014,194.04216431890376
507.7445932028836,186.0009312073503,15.896247556995116,15.89624755699511,194.23630138944094
507.0648815653965,186.80408392238104,16.070196672007803,16.070196672007807,193.39043670299523
506.3851699279094,183.7029154631126,17.36624571773787,17.36624571773787,202.1321501201303
505.70545829042226,183.18375166874998,17.472248896214,17.472248896213994,201.98629916263866
505.02574665293514,182.71801152219675,17.255004843932984,17.255004843932987,202.2285936872253
504.346035015448,183.23801779043248,17.861534083015286,17.86153408301529,201.77624788635143
503.66632337796085,183.41999559838138,17.736470008855637,17.736470008855644,203.31805174673815
502.98661174047373,183.2903329004447,17.820937084119578,17.820937084119578,203.26624613909257
502.3069001029866,183.67880252741418,17.62560858281435,17.625608582814348,201.8444573252422
501.62718846549944,182.69362482093254,17.71051278626216,17.71051278626216,202.5259912564114
500.9474768280123,183.1746111941564,17.59039891061949,17.59039891061949,203.68139884811492
500.2677651905252,182.91399065561714,17.91206228548273,17.912062285482726,204.27502611053953
499.5880535530381,182.63121520017228,17.634542481210882,17.634542481210882,204.05287438629162
498.908341915551,181.8981343657113,17.653954617644747,17.653954617644747,202.6640427458296
498.22863027806386,183.4349529033795,17.75791511771266,17.757915117712663,203.06975195875108
497.54891864057674,183.07910999582955,17.95154341276519,17.951543412765204,203.66671813868575
496.8692070030896,181.79482834170236,18.11864714657075,18.11864714657076,203.98876762665293
496.18949536560245,181.91485327100568,18.196171959473322,18.196171959473322,203.391247528348
495.50978372811534,183.0574667504397,18.024133464857123,18.024133464857123,203.9283308640314
494.8300720906282,182.9294164502802,18.182393604639298,18.182393604639298,204.19078276595835
494.15036045314105,182.55108583635146,18.3917647355633,18.3917647355633,204.21607420638136
493.47064881565393,181.6375926142449,17.982050176094155,17.982050176094155,204.63481632108002
492.7909371781668,181.40066117742467,18.388649607202055,18.38864960720205,204.60114832839483
492.1112255406797,180.96950331654566,18.124367657818176,18.124367657818173,205.05777374658902
491.4315139031926,181.01000499151525,18.176642733853647,18.17664273385365,203.60648713494567
490.75180226570546,182.00231626342233,18.183325237106576,18.183325237106576,204.0111050352257
490.07209062821835,181.29357963197143,17.530738636510012,17.530738636510005,204.91850448447025
489.39237899073123,181.93540144023856,18.056051234875493,18.05605123487549,205.0857752385233
488.71266735324406,181.48786679592834,17.771896750446928,17.77189675044693,205.0671017399743
488.03295571575694,181.60330057198598,17.92694369943054,17.926943699430545,203.92623203783745
487.3532440782698,181.09189276848886,17.178598623685733,17.178598623685733,204.28286389409797
486.67353244078265,181.99573662554175,17.548930185753257,17.54893018575326,205.5932329480724
485.99382080329553,181.5773858613245,18.059263939751144,18.059263939751148,205.17913306773497
485.3141091658084,181.83448479926759,18.167250813791576,18.167250813791576,205.0300560266321
484.6343975283213,181.5473556099734,18.426240953759223,18.426240953759223,205.38253057088502
483.9546858908342,180.71514165286587,18.846899490324898,18.8468994903249,207.42854726745966
483.27497425334707,182.5961684743989,18.464576342612,18.464576342612,206.28168991656074
482.59526261585995,181.22553930600873,18.579334330088425,18.57933433008842,205.54678178330548
481.91555097837283,181.32128009714447,18.336415340011325,18.33641534001132,205.85884993710116
481.2358393408857,181.30788249583216,18.43136585184456,18.43136585184456,206.29227249397445
480.55612770339854,181.20594724207464,18.409455313853933,18.40945531385393,205.753036698462
479.8764160659114,181.17315289131943,18.453979548493084,18.45397954849309,207.88149296510542
479.19670442842425,182.1466752690383,18.776750770331716,18.776750770331716,207.26832661748475
478.51699279093714,180.41055458602682,18.734875213060285,18.73487521306029,207.28970655453327
477.83728115345,181.88317901217852,18.713250508586544,18.713250508586544,208.33347076510304
477.1575695159629,181.93041598528782,18.49631404119233,18.49631404119233,208.01531984474732
476.4778578784758,181.43885922297724,18.65241547570093,18.652415475700927,208.0900082436734
475.7981462409887,180.56418720397068,18.54333798839046,18.54333798839046,207.40519186555048
475.11843460350156,180.9136259960298,18.67296844984248,18.672968449842475,208.14227532004998
474.43872296601444,181.60977447513253,18.406357101366698,18.406357101366694,208.76383755589487
473.7590113285273,180.76939246609,18.827341309859456,18.827341309859456,208.56444792850468
473.07929969104015,180.69962359617762,18.370893359442608,18.370893359442608,208.22394210409314
472.39958805355303,181.33574810024152,19.1516028276281,19.1516028276281,208.1613565528851
471.7198764160659,181.09691478565662,18.36213165937372,18.36213165937372,207.85627494023845
471.04016477857874,180.62423526504932,18.368364883622952,18.368364883622956,208.3869068987177
470.3604531410916,182.45820543109258,17.58863070084559,17.58863070084559,209.2987951203608
469.6807415036045,182.11359414274273,17.30450634148425,17.304506341484252,209.035158271383
469.0010298661174,182.76186879857585,17.273191516208794,17.273191516208794,211.23269763984553
468.3213182286303,181.93034662297183,17.638194803855118,17.638194803855125,211.33373305581884
467.64160659114316,182.53235736288684,17.899576175996813,17.899576175996813,211.0722800062465
466.96189495365604,182.37257899771558,17.94398691369783,17.943986913697827,210.749680192923
466.2821833161689,180.4310277666096,18.126230720882504,18.1262307208825,209.52946906876764
465.60247167868175,180.668818749651,18.65647063589998,18.65647063589997,209.62810518969698
464.92276004119464,180.86146597985928,18.497992190850315,18.497992190850315,209.4757273921653
464.2430484037075,179.69835617254017,19.193981360360116,19.193981360360116,209.81493776530763
463.56333676622035,181.0018742126449,18.838588544483088,18.838588544483088,209.41383119110807
462.88362512873323,179.83297471140003,19.480493512448916,19.48049351244892,211.59388324869155
462.2039134912461,180.35310185764078,18.362849459886775,18.362849459886775,210.40774240586788
461.524201853759,180.39174678424953,18.87446877352092,18.874468773520924,209.8798655524175
460.8444902162719,180.10197795343763,18.713636339364694,18.713636339364694,210.4978560303447
460.16477857878476,179.84237613713572,18.583456586732257,18.583456586732257,210.55865454811357
459.48506694129765,180.57875857234373,18.315814085837776,18.315814085837776,210.4134926425534
458.80535530381053,181.49014080234042,18.75945450845743,18.759454508457427,210.7023739312874
458.12564366632336,180.5488259838667,18.60980648217258,18.60980648217258,211.03741424931027
457.44593202883624,178.86797091577213,18.609603035876574,18.609603035876574,212.09490990373246
456.7662203913491,180.0754594080556,18.988397466277853,18.988397466277853,212.01300619658008
456.08650875386195,180.3553061306654,18.691447331387092,18.691447331387092,211.01737283169717
455.40679711637483,180.82660548470886,19.00307860994328,19.003078609943284,212.83626137736067
454.7270854788877,181.7778039867391,18.66765352497612,18.667653524976117,212.09898232505375
454.0473738414006,181.40641212244276,18.830834267682512,18.830834267682512,212.63058457179372
453.3676622039135,180.66913986869207,19.50797732432022,19.50797732432022,212.42892741724947
452.68795056642637,180.2153415269577,19.490227294392554,19.490227294392554,211.85108912847645
452.00823892893925,180.4955642561977,19.478121353898274,19.478121353898274,212.43512325181314
451.32852729145213,180.29005940984416,19.31379307547959,19.31379307547959,212.25312644292478
450.648815653965,180.58120486183302,19.437668670672032,19.437668670672025,212.2757949864949
449.96910401647784,180.14884658028984,19.3723254061823,19.3723254061823,212.60129124735403
449.2893923789907,180.78664474189978,19.092420695429354,19.09242069542936,212.55370193753092
448.60968074150355,181.14856067035174,19.540730869915304,19.540730869915304,213.2113001655277
447.92996910401644,180.1438181511246,19.863934497494103,19.863934497494103,213.235979934247
447.2502574665293,180.32768532628506,19.503144360158156,19.503144360158156,212.98163557695497
446.5705458290422,180.8490534714965,19.717926294131274,19.717926294131274,214.95983984610658
445.8908341915551,179.30504587411065,19.728852928682837,19.72885292868284,214.33289951393485
445.21112255406797,181.01539606922498,19.12133815753541,19.121338157535412,214.66995913985215
444.53141091658085,180.48931338182916,19.14145842208007,19.141458422080067,214.74519268002788
443.85169927909374,180.78722921449355,19.2017055351656,19.2017055351656,215.70638454624518
443.1719876416066,180.6070168188788,19.13589189129604,19.13589189129604,213.7531826623905
442.49227600411945,180.84769737420316,18.944854806713156,18.944854806713156,215.68206875323875
441.81256436663233,180.39945750425062,18.954473932375336,18.954473932375336,215.7372955484102
441.1328527291452,180.394018480985,19.25707208128673,19.25707208128673,215.6193514946386
440.45314109165804,181.14343926512595,19.0341248549623,19.034124854962304,214.99479064794903
439.7734294541709,180.8485895940813,19.152687099054244,19.152687099054244,215.1523683444203
439.0937178166838,180.28915986498248,18.917718895256037,18.917718895256037,216.86205613474817
438.4140061791967,180.76749974227062,18.746357213572914,18.746357213572907,215.83429636080675
437.7342945417096,180.6255710975448,19.291951730719664,19.291951730719664,216.0764855589337
437.05458290422246,180.42473854323447,18.997328117280983,18.997328117280983,215.40288505971338
436.37487126673534,179.5452443839182,19.20812569841171,19.208125698411706,216.41011948095834
435.6951596292482,179.5460622661848,19.47885049893452,19.47885049893452,215.43028055087103
435.01544799176105,180.36580079035588,19.06513696144383,19.06513696144383,215.99452297910486
434.33573635427393,179.9698875393223,19.432126478279176,19.43212647827917,215.23298206243672
433.6560247167868,178.7671328083187,19.03774715912605,19.03774715912604,216.8384188105107
432.97631307929964,179.17207976136555,19.243734065249033,19.24373406524903,216.4285680352721
432.2966014418125,179.3092879451649,19.41224072320871,19.412240723208715,217.361234630782
431.6168898043254,179.675308874352,19.54332455620142,19.54332455620141,217.14655167667476
430.9371781668383,180.2167486105319,19.393022227821522,19.393022227821515,217.24266351393914
430.2574665293512,181.03869974891407,19.234160962749197,19.23416096274919,218.15645125987962
429.57775489186406,179.7772082904448,19.066475488982796,19.066475488982796,218.47778153636506
428.89804325437694,180.38372402422263,19.556484320960923,19.556484320960923,218.4656855581819
428.2183316168898,180.02669737480045,19.164599222747523,19.16459922274753,217.74352793246956
427.53861997940265,180.09802102258112,19.036854830110904,19.0368548301109,217.33011478849434
426.85890834191554,179.9424050261664,19.11733068698902,19.11733068698902,217.76158326354903
426.1791967044284,180.81927273245492,19.22557598529171,19.225575985291716,218.42081738248118
425.49948506694125,179.17038370608475,19.105910541055543,19.105910541055543,217.95181206099608
424.81977342945413,179.26833894386823,19.785633915818515,19.78563391581851,217.7040299459069
424.140061791967,180.19562565743308,19.218564393509862,19.218564393509862,217.67861832561226
423.4603501544799,179.64884980139922,19.284227068664034,19.284227068664034,218.38750063245584
422.7806385169928,179.49182927961803,19.44304902864297,19.44304902864297,217.5663615957668
422.10092687950566,178.8560077962012,19.38813189533541,19.388131895335412,219.07534344470218
421.42121524201855,178.61338239097978,19.949715796734374,19.949715796734374,218.9374369027868
420.74150360453143,179.42828656358438,19.285422478772112,19.285422478772112,219.39025618815543
420.0617919670443,179.2827873090637,19.674455771359508,19.674455771359508,217.36302039809604
419.38208032955714,179.27253283769332,19.109558298020676,19.109558298020676,218.95440659314272
418.70236869207,179.57138049807998,19.693414366639256,19.693414366639253,219.60282022534815
418.02265705458285,179.85724466916474,19.317858761110955,19.317858761110955,219.11653677713107
417.34294541709573,179.8033483440157,19.056764907508867,19.056764907508867,220.4026858247707
416.6632337796086,179.47536790650028,19.495201893287465,19.495201893287472,218.6650929644609
415.9835221421215,179.2400987349081,19.7713658351807,19.7713658351807,219.54191303770656
415.3038105046344,178.21106184988435,19.507810914126477,19.507810914126477,220.97714055268807
414.62409886714727,179.23547150149807,19.649769529865843,19.649769529865843,218.44303128024865
413.94438722966015,178.69366410606298,19.154684487277205,19.15468448727721,219.8667232410554
413.26467559217303,178.65445520972557,19.50466927685172,19.50466927685172,220.8779180948254
412.5849639546859,177.60761994235315,19.669635329825105,19.669635329825105,220.79298245176344
411.90525231719874,178.9868114047531,19.72976158109282,19.72976158109282,220.37179652125167
411.2255406797116,178.394799860687,19.52395611996014,19.52395611996014,219.79985980682403
410.5458290422245,177.43157508631677,19.613510539651326,19.61351053965133,221.14159470611656
409.86611740473734,178.91014689336376,18.920849777425353,18.920849777425353,220.6284235335029
409.1864057672502,178.54692658706082,19.55770956873213,19.557709568732125,220.05137465169707
408.5066941297631,179.4653923286472,19.611316810804833,19.611316810804833,219.82935194792083
407.826982492276,178.51674215732248,19.272763378071268,19.272763378071268,220.42611815304127
407.14727085478887,177.94069784855168,19.530584911942547,19.53058491194255,221.20697242856264
406.46755921730175,177.87238626821198,19.592482534073717,19.592482534073717,221.0753971603128
405.78784757981464,177.79895980939182,19.356112415333538,19.356112415333538,220.85103956367195
405.1081359423275,177.76758364348285,20.001509938217392,20.001509938217392,220.61010172898864
404.42842430484035,177.86839543976478,19.553995849928125,19.55399584992813,221.59853061898352
403.74871266735323,178.1356905368518,19.74283446348232,19.74283446348232,221.27804322486358
403.0690010298661,178.45143672122794,20.421317080779815,20.421317080779815,220.7507053860776
402.389289392379,176.64835629442968,19.533107742162752,19.533107742162752,221.46045136755555
401.7095777548918,177.5493412012169,19.250634109856485,19.250634109856485,221.28619997561356
401.0298661174047,177.4321770629823,19.801601544263065,19.801601544263058,221.98512479511513
400.3501544799176,176.94730636045418,19.931982340420866,19.931982340420863,222.57808370154433
399.6704428424305,178.31849723971646,19.90230992440062,19.902309924400623,222.69126040128205
398.99073120494336,177.08648290521606,19.80385094987001,19.803850949870007,222.5934371132445
398.31101956745624,177.79070628650453,19.64137452783767,19.64137452783767,222.2102613043203
397.63130792996907,177.7952839547608,19.54631224296865,19.546312242968654,222.0734131453655
396.95159629248195,176.7787313772237,19.334743934465717,19.33474393446572,222.52943775763666
396.27188465499484,176.60996819985797,19.762196317448403,19.7621963174484,222.25575686712807
395.5921730175077,177.41779564652367,19.732090581356964,19.732090581356964,222.42433749050184
394.9124613800206,177.9845981758791,19.073688536427106,19.073688536427102,223.06808982721537
394.2327497425335,177.10109991899597,19.651565962766934,19.651565962766934,222.95503833969875
393.5530381050463,177.177367165292,19.652984007547747,19.65298400754775,224.54978483993878
392.8733264675592,178.17361571525512,19.429709612155563,19.429709612155563,224.12156984063833
392.1936148300721,176.99647914259333,19.98443106324247,19.98443106324247,223.79848125620052
391.51390319258496,176.64301367644924,20.204848121194683,20.204848121194672,223.47110128621324
390.83419155509785,176.8198241425038,19.380663292571075,19.38066329257108,224.2067873041555
390.1544799176107,176.29236978254033,19.822690282326988,19.822690282326985,223.27179472656107
389.47476828012356,176.7119707990954,19.276240891766445,19.276240891766445,223.92754765157443
388.79505664263644,178.00362788785077,19.199202001467395,19.199202001467395,224.35852134318304
388.1153450051493,177.7844601303914,19.493167630000087,19.49316763000009,224.75247453577148
387.4356333676622,176.18398030478042,19.521720792359755,19.521720792359755,224.65876626466363
386.7559217301751,176.74962757600431,19.64297627842961,19.642976278429614,223.59342758619783
386.0762100926879,176.68565315827522,19.814502575696626,19.814502575696626,223.4410622968755
385.3964984552008,177.06336404857325,19.797522702462544,19.797522702462548,222.96312881315455
384.7167868177137,177.36008242773423,19.72448484106642,19.724484841066417,225.40058293029503
384.03707518022657,176.88793078392098,19.657139589174562,19.657139589174562,224.47752485895117
383.35736354273945,176.9190479863444,19.52085177082827,19.52085177082827,224.39206128278727
382.6776519052523,177.1092888557115,19.58905074383657,19.58905074383657,225.08031351493315
381.99794026776516,177.12775351071215,19.49345695627398,19.49345695627398,224.8891157609585
381.31822863027804,177.426074269527,19.351203226866097,19.351203226866097,225.2077380305047
380.6385169927909,177.5567987094926,19.744909072440933,19.744909072440933,224.62725592865962
379.9588053553038,176.65837858562793,19.55358785782802,19.553587857828024,227.08098773603814
379.2790937178167,177.54667882764076,19.2169203891194,19.2169203891194,225.61655298899495
378.5993820803295,178.10570230426939,18.82779951176923,18.82779951176923,226.31626486483887
377.9196704428424,177.38521471316932,19.53996008336925,19.53996008336924,225.71024578024335
377.2399588053553,177.20619756485084,19.740062418900308,19.740062418900315,225.83180535119143
376.56024716786817,177.95364054114987,19.639789947698702,19.639789947698716,225.5672265609108
375.88053553038105,176.98070810383444,19.356401867525157,19.356401867525157,227.1537249855775
375.20082389289394,177.67641129977875,19.555588842078905,19.5555888420789,226.51845022660845
374.52111225540676,174.48758254479807,19.55315796711731,19.553157967117304,232.3929116308111
373.84140061791965,174.34617079012983,19.592426823945285,19.592426823945278,231.5974970148916
373.16168898043253,175.45134122356473,19.78823040095799,19.788230400957982,231.90156566679403
372.4819773429454,176.3599776440644,20.082001667781093,20.082001667781093,230.97745474750556
371.8022657054583,175.83065434918825,20.12545172446146,20.125451724461467,231.09369661211463
371.1225540679711,175.29799968551674,19.398107655994025,19.398107655994018,231.4081023158702
370.442842430484,175.62930592133867,19.44586596608806,19.44586596608806,232.47561496364693
369.7631307929969,175.4150155268609,19.761490233229182,19.76149023322918,230.81570640114697
369.0834191555098,176.10574127823662,19.91784188520199,19.917841885201984,232.0672423538137
368.40370751802266,175.6659397181538,19.380538804722576,19.380538804722576,233.07695857594584
367.72399588053554,176.0862521422677,19.680087031583987,19.680087031583984,232.84135388639632
367.04428424304837,175.61266569070287,19.872699597785513,19.87269959778551,232.7045645605961
366.36457260556125,174.73246662284708,20.22041263112853,20.220412631128518,232.76012729148874
365.68486096807413,175.31477602410027,19.678560227371797,19.678560227371804,232.1904484489689
365.005149330587,175.49594314950673,19.67163271564441,19.67163271564441,234.54544422256694
364.3254376930999,175.49109050545982,19.6594271800474,19.6594271800474,231.7882793790835
363.6457260556128,175.23579121233035,19.686042398292805,19.686042398292813,233.38709062988218
362.9660144181256,174.2339085173301,19.596573967354697,19.596573967354686,233.54427252454065
362.2863027806385,174.95111419287417,19.72091579515767,19.720915795157662,233.429636489671
361.6065911431514,174.3939514867934,19.380713208207286,19.38071320820728,233.84494022271187
360.92687950566426,175.1041182839886,19.397273675204023,19.397273675204026,233.48820621183555
360.24716786817714,174.79515594156612,19.235047286540404,19.235047286540404,232.99804022591488
359.56745623068997,175.0300381363276,19.41623400936007,19.41623400936007,234.7535530307903
358.88774459320285,174.3757584089032,19.39407480447874,19.394074804478738,233.72116246429616
358.20803295571574,175.0323844030685,19.882277749854282,19.882277749854286,234.71472244975521
357.5283213182286,173.785228747882,20.078349695683542,20.07834969568354,234.13067537515235
356.8486096807415,175.30203346399992,19.536268678068502,19.536268678068502,233.56865331610433
356.1688980432544,174.75314202038692,19.51278752348374,19.512787523483738,234.22404683896988
355.4891864057672,174.98896014917804,19.031234723936482,19.031234723936482,235.34007110931222
354.8094747682801,174.37284498582216,19.571992174986637,19.571992174986633,234.71971395443484
354.129763130793,174.71619332863523,19.558691395509847,19.558691395509847,235.3152270363728
353.45005149330586,174.33750359686502,19.638580369996028,19.63858036999603,234.53704135375895
352.77033985581875,174.39805231794878,19.984394822274,19.984394822274,234.97808254684196
352.0906282183316,175.05441121803696,19.42565709188534,19.425657091885334,235.32178776758036
351.41091658084446,174.4711812763614,19.78449513814889,19.78449513814889,234.98065032788986
350.73120494335734,174.64102256876455,19.154643340781668,19.154643340781668,235.11656037912275
350.0514933058702,173.7613109221704,20.3952452182797,20.3952452182797,236.45885062388294
349.3717816683831,174.3415605806541,19.861261988965502,19.86126198896551,235.82765200917547
348.692070030896,173.5030381244081,20.01418560355212,20.014185603552118,235.49046663334968
348.0123583934088,174.24010969054893,19.914772362340496,19.914772362340496,235.7739647774207
347.3326467559217,174.00060516157436,19.463865378012773,19.463865378012773,235.86954003546717
346.6529351184346,174.82062441174915,19.642862109392915,19.642862109392915,235.53033764532472
345.97322348094747,174.14337506833493,19.500644907731957,19.500644907731957,235.20208910638175
345.29351184346035,173.83968402313565,19.680196065447145,19.68019606544715,235.99271846329106
344.61380020597323,174.1360669793577,19.82221909121082,19.822219091210822,236.21546473457406
343.93408856848606,173.92131771177736,20.071842564590906,20.071842564590906,236.8109776241337
343.25437693099894,173.9269286996007,19.60524639451662,19.60524639451662,237.8367628356062
342.5746652935118,173.98052127958692,19.757321057060537,19.757321057060533,237.816898090512
341.8949536560247,173.63115027487063,19.798436766969957,19.79843676696995,236.51725187654793
341.2152420185376,173.55569728960174,19.881620474493115,19.881620474493126,237.24173947635805
340.5355303810504,173.87886413836577,19.82058726755538,19.82058726755538,236.49464002876005
339.8558187435633,174.49920652611468,20.104221904211585,20.104221904211588,236.77065367560385
339.1761071060762,174.11304539309555,20.279652802385137,20.27965280238514,237.3202219894959
338.49639546858907,173.90316207596078,19.594805865401273,19.594805865401273,238.16570776127787
337.81668383110195,173.95159289798303,19.85938535090521,19.85938535090521,237.16615189333297
337.13697219361484,173.71276607288632,19.98099980513358,19.980999805133578,239.58569281769246
336.45726055612766,174.19557887325576,19.571255051229947,19.57125505122994,237.92605500329296
335.77754891864055,173.47252211057366,19.63555955022022,19.63555955022022,238.62516256212191
335.09783728115343,173.51293197618634,19.6508566362877,19.6508566362877,237.76913183003282
334.4181256436663,173.43817453566382,19.945300031296885,19.945300031296885,237.87570011584765
333.7384140061792,173.4565172497734,19.868709862222264,19.868709862222264,237.94774386438556
333.0587023686921,173.59855252722596,20.431273947871546,20.431273947871546,238.2432738011362
332.3789907312049,174.42133879536024,20.687788277925982,20.687788277925982,238.58551340378398
331.6992790937178,173.52748671251294,19.679706587717096,19.6797065877171,239.38478528839457
331.0195674562307,174.20020356579107,19.777242939052215,19.77724293905222,238.3885413628637
330.33985581874356,174.4644737724334,19.56381228579145,19.563812285791453,239.2073902599619
329.66014418125644,173.52443895898972,19.84732201843198,19.84732201843198,239.733332729193
328.98043254376927,173.9971289012275,19.948524734614004,19.948524734614004,239.82170068887413
328.30072090628215,175.12610224751484,19.542526398966505,19.5425263989665,238.97654889120727
327.62100926879504,173.42460856457015,19.87242805760771,19.87242805760771,240.26003026085283
326.9412976313079,173.24385459949846,19.76834754607104,19.768347546071045,239.662870225633
326.2615859938208,174.08321807026888,20.035609455112947,20.035609455112947,239.83255891738594
325.5818743563337,172.85789707335968,19.633960479199416,19.63396047919941,240.7094745141672
324.9021627188465,174.0318202534766,19.105644919744176,19.105644919744176,240.82771608949056
324.2224510813594,173.9439816770008,19.736467681090033,19.736467681090033,239.42345944502796
323.5427394438723,173.85947050565287,19.588021312274645,19.588021312274645,240.20505226375556
322.86302780638516,173.5143465300966,19.925130346494328,19.92513034649432,240.43108061764772
322.18331616889805,174.0905055963643,19.871481085442664,19.871481085442664,240.79466331295689
321.5036045314109,173.69170541526134,19.64344779476482,19.64344779476482,240.62737302922875
320.82389289392376,173.81595856519314,19.761479856778415,19.76147985677842,240.73598185713482
320.14418125643664,174.20747765026562,19.76069194931541,19.76069194931541,241.29986864803408
319.4644696189495,173.39209624067865,19.963516255903226,19.963516255903226,242.09291078023216
318.7847579814624,173.58612495509635,20.732417206730638,20.732417206730645,241.5520757659619
318.1050463439753,173.6497590669885,19.898127263811755,19.898127263811748,242.08462509204065
317.4253347064881,174.4410576859346,20.049912496954203,20.049912496954207,242.09777310447467
316.745623069001,174.46745607345304,19.7084351579647,19.7084351579647,241.46672499453828
316.0659114315139,173.53822633723843,19.641894240456224,19.641894240456224,242.21528221960986
315.38619979402677,173.40070817937828,19.83668856407719,19.836688564077182,241.88239187486667
314.70648815653965,173.30406695899393,19.71697433190098,19.716974331900985,242.2466057757182
314.02677651905253,173.61151883114164,20.430768619238336,20.430768619238332,241.3847619236577
313.34706488156536,172.94352924634285,19.71594175615687,19.71594175615687,242.13573734587533
312.66735324407824,173.23245300803484,19.538982383556696,19.538982383556704,243.66233225556593
311.9876416065911,173.70521330884537,19.868384975506736,19.868384975506743,242.86796940532085
311.307929969104,172.89795497550008,19.69831392792359,19.69831392792359,242.46404894548985
310.6282183316169,173.83816520383934,20.010386444887498,20.01038644488749,242.45870221663824
309.9485066941297,173.34586627592964,20.153207980720147,20.153207980720147,242.71653701916333
309.2687950566426,173.38858794751874,20.197263234779946,20.19726323477995,241.8823890559295
308.5890834191555,173.90450711616361,19.758253658933732,19.758253658933743,243.15756520480053
307.90937178166837,173.21275262003002,20.483089125962522,20.483089125962522,244.1976954205333
307.22966014418125,173.94623154435428,19.946627950485734,19.94662795048573,242.5874783887063
306.54994850669414,174.15650789147185,19.511602920315248,19.511602920315244,243.55719710168614
305.87023686920696,174.0987952249311,19.46726337839472,19.46726337839472,243.56386502461345
305.19052523171985,174.4311657849786,20.11173611368808,20.11173611368809,244.0433234785193
304.51081359423273,174.9588532632367,19.526280097068604,19.526280097068604,244.1284627902807
303.8311019567456,173.99613546894696,19.556251939438962,19.556251939438972,244.3710955043851
303.1513903192585,174.1520331994457,19.802215630910005,19.802215630910005,244.9563305291756
302.4716786817714,174.09659986338474,19.77530365940211,19.77530365940211,243.8990374210322
301.7919670442842,173.73457912445772,19.55609618174701,19.55609618174701,244.64363968889995
301.1122554067971,173.85817366593741,20.117368442806708,20.1173684428067,245.48149912798024
300.43254376931,173.4936109332464,19.895551597116835,19.895551597116835,244.963745365628
299.75283213182286,174.165462515712,19.62077601088398,19.62077601088398,244.13655936381357
299.07312049433574,173.26297787704084,19.840852384105094,19.840852384105094,245.13854107113374
298.39340885684857,173.80737256922637,19.77290481189848,19.77290481189848,245.93170197611252
297.71369721936145,174.01994976978517,19.683769888796196,19.683769888796196,245.53227295327417
297.03398558187433,174.1881159668601,20.1479530577936,20.147953057793607,245.51582486834226
296.3542739443872,174.03575474849805,20.209604383787532,20.20960438378754,246.20387439420028
295.6745623069001,174.24089933650416,19.998828115248635,19.998828115248635,245.17433376894238
294.994850669413,173.59862351725602,19.83520216212258,19.835202162122577,245.18200420343985
294.3151390319258,173.67555502291313,19.53132034189407,19.53132034189407,246.7077494651897
293.6354273944387,173.69454921225454,20.084105116110553,20.084105116110553,246.61331018008178
292.9557157569516,173.9288475825643,20.008568013408063,20.008568013408055,246.55433105141464
292.27600411946446,174.02781837258001,20.257793355126715,20.25779335512671,245.16834523017047
291.59629248197734,174.47244791233078,20.099099870010512,20.099099870010505,245.64786344528085
290.91658084449017,174.31069042570013,19.881967536755162,19.881967536755162,245.6138153883834
290.23686920700305,173.30233121759397,19.687156201767646,19.68715620176765,246.97938823974735
289.55715756951594,174.297813813952,19.504679828936727,19.504679828936734,246.75009695022646
288.8774459320288,173.80013260426819,19.555165026163632,19.555165026163632,246.22156064007692
288.1977342945417,174.2053667684035,19.424408476382787,19.424408476382787,246.53325959916847
287.5180226570546,174.83683609759817,19.6134544897824,19.6134544897824,245.6659905455468
286.8383110195674,173.7605666573882,19.760466166703413,19.760466166703413,246.7508216324452
286.1585993820803,174.32096395943535,19.89508308542164,19.89508308542164,245.97983478365776
285.4788877445932,174.24269630107267,20.312952100781054,20.312952100781054,246.4947058282777
284.79917610710606,173.72593793316088,19.72195130178329,19.72195130178329,245.97159547091226
284.11946446961895,174.44312737350975,18.76986507044625,18.769865070446258,246.73732368837153
283.43975283213183,174.09562831085807,19.40528484495376,19.40528484495375,246.0718536831213
282.76004119464466,174.2883894005093,19.74892454504826,19.748924545048265,247.138007235078
282.08032955715754,174.5013811525087,19.384467627971862,19.384467627971862,248.17587874887067
281.4006179196704,174.40735862350306,19.52250670796489,19.522506707964887,246.87573263622835
280.7209062821833,174.6808983419113,19.98378259402093,19.983782594020923,246.81545207018894
280.0411946446962,175.0867177012157,19.243751213028986,19.24375121302898,247.89973618187074
279.361483007209,174.2346522873843,19.648737094065346,19.648737094065346,247.26809010217983
278.6817713697219,174.3685494983094,19.237104202267243,19.237104202267243,247.1750989465052
278.0020597322348,174.19081989701473,19.67701520257884,19.67701520257884,247.48242652613712
277.32234809474767,173.84560231395636,19.54080584682955,19.54080584682955,247.81420728835724
276.64263645726055,173.89365735122615,19.581814283959783,19.58181428395978,247.32507917958108
275.96292481977343,173.94125791731892,19.35122268467015,19.35122268467014,248.14064411635036
275.28321318228626,175.05725730272215,19.135457058110795,19.135457058110802,248.50397436632048
274.60350154479914,175.27839953081514,19.191893824627662,19.191893824627662,249.06053295414438
273.923789907312,174.65060782535872,19.225316737043535,19.22531673704353,248.52614045467888
273.2440782698249,175.7297453680504,18.871518021187295,18.8715180211873,250.16313594675387
272.5643666323378,176.190477521754,19.407461000635394,19.407461000635394,248.4594719715991
271.8846549948507,176.64554561825253,19.48251433369903,19.48251433369903,248.885680663014
271.2049433573635,176.39273580019218,19.578845450002355,19.57884545000235,248.96115121796447
270.5252317198764,176.72293014739748,19.394026827982614,19.394026827982614,248.78877704475462
269.84552008238927,176.8722699116355,19.158923674496105,19.158923674496098,249.3552822186555
269.16580844490215,175.92837971411603,19.60105713634204,19.60105713634204,249.37860187378334
268.48609680741504,175.74692245437794,19.49870987604507,19.498709876045076,249.2250146430286
267.80638516992786,176.61153141247564,19.811306646943187,19.81130664694319,248.77090545687022
267.12667353244075,176.5346561470548,19.323511351503782,19.323511351503782,248.6092864903973
266.44696189495363,175.6265527236112,19.479744355522563,19.479744355522566,249.1103494449971
265.7672502574665,176.01070392396642,19.438683534775485,19.438683534775485,248.24044234909616
265.0875386199794,175.67908589713556,19.074049915407983,19.074049915407983,248.72445298151808
264.4078269824923,176.17060345662478,19.405970590653556,19.405970590653553,248.2640875457497
263.7281153450051,176.20147865139515,19.592396011135673,19.592396011135673,249.25829120155865
263.048403707518,176.70738274459964,19.02356758522668,19.02356758522668,250.30007215236157
262.3686920700309,176.93786232879793,19.485269462822405,19.485269462822412,249.0892846074103
261.68898043254376,176.55473431252307,19.472730809612084,19.472730809612084,249.80330652862588
261.00926879505664,177.18878214512026,19.43853614816582,19.43853614816582,249.6345011746777
260.32955715756947,177.40952535721414,19.221694892952673,19.221694892952677,249.2437073897254
259.64984552008235,176.71051273945938,19.162609952390323,19.16260995239032,249.47419491947443
258.97013388259523,178.0091912268762,19.202045204420017,19.202045204420017,249.27962786101477
258.2904222451081,176.71266789943448,20.370717900008536,20.370717900008536,250.81797839776215
257.610710607621,177.92028599585763,19.01208678706337,19.012086787063367,250.10505136592596
256.9309989701339,176.57172521648258,18.85236492331257,18.85236492331257,249.24798290081256
256.2512873326467,175.59949737000434,19.26180486100834,19.261804861008343,249.52804889771437
255.5715756951596,176.49454407082536,18.907184640321063,18.90718464032106,249.21787660408836
254.89186405767248,175.40377176403592,19.112541015893463,19.112541015893463,248.32790978712154
254.21215242018536,175.44565556797636,18.86126547964186,18.86126547964186,249.17112788054376
253.53244078269825,176.3437147708613,19.142386465496497,19.142386465496493,249.13406789214326
252.85272914521113,176.69410797265104,19.32813463732029,19.328134637320286,250.32666488828323
252.17301750772396,176.03967890396171,19.273551081406893,19.273551081406882,250.3165679143963
251.49330587023684,176.6734050646924,19.851071674753072,19.851071674753072,250.63006721920524
250.81359423274972,176.81954806765762,19.431120414465592,19.431120414465596,250.0638482327857
250.1338825952626,177.2272108057276,19.119556071320027,19.119556071320027,250.73042950712912
249.4541709577755,177.81673424487806,19.218218698281177,19.218218698281177,250.0507701111911
248.77445932028832,177.56258992127346,19.295608450349956,19.295608450349963,248.33678931132863
248.0947476828012,177.0194192590981,18.941508697122636,18.941508697122636,249.16000786910303
247.41503604531408,177.20565422206943,19.551696876205018,19.55169687620502,248.84691999070648
246.73532440782697,176.43122333147753,18.850244618145382,18.850244618145386,249.53102903547077
246.05561277033985,177.55916561038603,19.392649589560545,19.392649589560538,249.2314638062449
245.37590113285273,176.9874179802058,18.754267731757643,18.754267731757636,249.8370070839771
244.69618949536556,177.32943395438926,19.158257276089742,19.15825727608974,250.43010833531284
244.01647785787844,177.5406493975511,19.12101642459718,19.12101642459718,249.6101808422865
243.33676622039133,178.18642758123812,19.30629231920445,19.30629231920445,249.6554121170963
242.6570545829042,178.5674010036894,19.7599208552573,19.7599208552573,249.14463508936015
241.9773429454171,176.78200140235595,19.500397339310897,19.500397339310897,250.28905117432106
241.29763130792998,177.21220425981258,19.381268911523275,19.381268911523282,250.64660262684225
240.6179196704428,177.23670931114316,19.530557584244896,19.530557584244896,249.71691588222626
239.93820803295569,177.84686180563986,19.56472748962065,19.564727489620655,250.13168163349388
239.25849639546857,177.93178392385093,19.174349509602614,19.174349509602614,250.63699895645973
238.57878475798145,178.46265090958602,19.571256621752784,19.571256621752788,251.2238287397474
237.89907312049434,178.30180317760627,19.16129906091775,19.16129906091775,250.1413780589199
237.21936148300716,179.12039090689456,19.115295930819904,19.115295930819904,249.8373222431938
236.53964984552005,179.058309128839,18.928032380882573,18.92803238088258,249.7121369648593
235.85993820803293,179.70685895115875,18.657736851609013,18.657736851609013,249.4022749279236
235.1802265705458,179.3268207902151,19.25197727316017,19.25197727316017,250.51367275091454
234.5005149330587,179.58211726535296,19.510860598246243,19.510860598246243,251.0549781988619
233.82080329557158,179.20396335920395,19.24308976298516,19.243089762985157,251.1596252505491
233.1410916580844,179.8427607218183,19.83088688601935,19.830886886019357,251.03714112507953
232.4613800205973,179.97402273883569,19.53812606877742,19.53812606877742,250.31372390272415
231.78166838311017,182.49168689105466,19.394451815107306,19.394451815107306,250.360325922848
231.10195674562306,181.1208416468285,18.56850957874807,18.56850957874807,251.79561218241838
230.42224510813594,181.26495005212533,19.027337317261633,19.027337317261633,249.78723194386953
229.74253347064877,181.5485490175776,19.18445486047163,19.184454860471625,249.00631338574445
229.06282183316165,180.71432414313313,19.16721043734981,19.16721043734981,250.06607337222263
228.38311019567453,181.3881434835026,19.20919032643038,19.20919032643038,249.93053686756693
227.70339855818742,181.58234513332562,18.879131563504416,18.879131563504416,250.62186841288243
227.0236869207003,181.61665250231408,19.02564107188837,19.02564107188837,249.2942989719336
226.34397528321318,182.54870923088475,18.404180776543733,18.404180776543726,249.8424037169478
225.664263645726,181.50445950531227,19.064676435321125,19.064676435321125,249.91533190050126
224.9845520082389,181.0774263372455,18.571432266170504,18.571432266170504,250.04997507485754
224.30484037075178,181.94953712083188,18.618409591704975,18.618409591704975,251.0074123862603
223.62512873326466,181.5067306059769,19.127916431526142,19.127916431526142,250.60994427032918
222.94541709577754,181.20596599232803,18.719843533042916,18.719843533042926,250.75167443349915
222.26570545829043,181.69632347305057,18.744635274465843,18.744635274465843,250.50550509681185
221.58599382080325,182.6783984797048,18.058522803686547,18.058522803686543,250.39636292392737
220.90628218331614,182.09068102298107,19.22700268564595,19.22700268564595,249.34474987014647
220.22657054582902,182.22273384544494,18.700848335977508,18.7008483359775,249.6658235524993
219.5468589083419,182.1243133531577,18.952321988145478,18.95232198814547,250.50562846293067
218.8671472708548,182.28271987874174,18.605487989933625,18.605487989933618,250.44826265244072
218.1874356333676,183.2324060129039,18.236485963616477,18.236485963616477,250.85589467889704
217.5077239958805,183.2870422163561,18.202769739322516,18.202769739322516,250.0223097508152
216.82801235839338,183.3679273959696,18.34089072371951,18.340890723719514,251.63246563577434
216.14830072090626,183.24617526710068,17.781599245845143,17.781599245845143,250.37305972727384
215.46858908341915,184.79157796503108,18.21909540182518,18.219095401825175,249.9228387427448
214.78887744593203,184.3165770587862,18.062699210119312,18.062699210119312,251.0936157050581
214.10916580844486,184.39479308680623,18.67477470930076,18.67477470930076,250.7881851096014
213.42945417095774,184.6768302672486,18.079268144809962,18.079268144809962,250.12359521661753
212.74974253347062,183.9271204407112,17.936428920094425,17.936428920094425,250.6729727544757
212.0700308959835,184.32387160399367,18.26062331412326,18.260623314123265,250.70045903708314
211.3903192584964,184.19892537392047,18.50116876505148,18.50116876505148,250.37722511463713
210.71060762100927,184.86884107087087,17.898777682940263,17.898777682940263,250.15105616821964
210.0308959835221,184.78368726563332,17.891130102251076,17.891130102251083,250.3154590918108
209.35118434603498,183.98865576338113,17.964740380855243,17.964740380855243,249.98680672438255
208.67147270854787,184.45196105970294,17.7388530730917,17.738853073091708,249.66004439499673
207.99176107106075,184.91988468238256,17.62038530399841,17.62038530399841,248.82705108852969
207.31204943357363,184.04706951036468,17.624409421948716,17.62440942194872,249.33281818702238
206.63233779608646,184.46253668675203,17.687217631066307,17.687217631066307,249.98720766603262
205.95262615859934,185.350789974399,17.827673455184865,17.82767345518486,250.5296654513286
205.27291452111223,185.56095982071218,17.78097197023986,17.780971970239854,249.38414909659085
204.5932028836251,184.54205610267203,17.8103150064568,17.810315006456804,250.865893812392
203.913491246138,185.57588946377916,17.54110366240333,17.541103662403337,250.0001947418482
203.23377960865088,185.39175966132268,17.709840857250157,17.709840857250157,249.74655782395638
202.5540679711637,184.96840761096658,17.6374544535154,17.637454453515396,250.49453987889348
201.8743563336766,185.0753984257304,17.61766329544552,17.617663295445524,250.7706226692948
201.19464469618947,184.47712411356267,17.281686831965757,17.281686831965757,249.8078928750349
200.51493305870235,185.58388466639656,17.832234261339945,17.83223426133995,249.69639188141122
199.83522142121524,184.56067581103517,17.046911620078006,17.046911620078006,249.6036532079403
199.15550978372806,187.12483689195517,17.062868100701596,17.062868100701596,249.7375528577911
198.47579814624095,186.68657407413386,17.219209358834274,17.219209358834274,250.37119344352664
197.79608650875383,186.96576238562068,16.885862036916624,16.885862036916617,251.19990839355592
197.11637487126671,187.26058282355123,16.931726539275072,16.931726539275076,248.81860063423613
196.4366632337796,187.88330556802757,17.126613453720157,17.126613453720164,248.9414808982143
195.75695159629248,186.5483281630838,17.1194530675401,17.1194530675401,250.14630729242708
195.0772399588053,187.56193147778953,16.84509196506103,16.845091965061037,249.94524951846424
194.3975283213182,187.9725729749491,17.19827628038967,17.198276280389674,249.27480634809427
193.71781668383107,187.50159517962882,17.1002508852607,17.100250885260696,249.59620781185671
193.03810504634396,187.58810576524996,16.786589047941693,16.786589047941693,249.39074245644346
192.35839340885684,187.83518735668017,17.17119831188338,17.17119831188338,248.59984289184524
191.67868177136972,187.90022478107824,16.737814465140445,16.737814465140445,249.3718501214265
190.99897013388255,187.69206973479524,16.64648400595258,16.646484005952573,249.61072593041783
190.31925849639543,187.90547346198176,16.35263986446407,16.35263986446407,250.59714703880343
189.63954685890832,189.21224765150615,15.923746521535834,15.923746521535834,249.31331796049253
188.9598352214212,188.19165134672457,16.67863302681893,16.67863302681893,249.56311786721412
188.28012358393408,188.72475899434014,16.151609950298774,16.151609950298774,249.44246404692257
187.6004119464469,188.82047390800486,15.956027815195423,15.956027815195423,249.241558660388
186.9207003089598,189.00165791025873,16.536913867386733,16.536913867386737,247.50423701762188
186.24098867147268,188.50733117225926,16.647373443706787,16.647373443706787,249.2787509178536
185.56127703398556,188.54213151312325,16.71401980914181,16.714019809141817,248.55294881961737
184.88156539649844,189.20320786700063,16.151236269014408,16.1512362690144,248.40476176701932
184.20185375901133,189.35570950443454,16.169664499956244,16.16966449995624,248.39212074277225
183.52214212152415,190.31868857846027,15.687415403307586,15.687415403307586,248.77249868554648
182.84243048403704,189.8043363327994,16.149663130941036,16.149663130941043,248.5508133415281
182.16271884654992,190.134479370895,16.241791698673346,16.241791698673346,247.9877686425102
181.4830072090628,188.96776458525753,14.458547605270926,14.45854760527093,251.05063535673358
180.8032955715757,190.26099108867916,15.905229202978662,15.905229202978667,247.96588748895195
180.12358393408857,190.095662505151,15.443868289008199,15.443868289008199,249.8495067118551
179.4438722966014,189.88306657300353,15.788501337603615,15.788501337603618,248.39446850674923
178.76416065911428,190.71776342427054,15.925966250260387,15.92596625026038,247.14567435972575
178.08444902162717,190.63674360727086,15.610973278954,15.61097327895402,248.15981926749515
177.40473738414005,190.02221599644727,15.748540332962808,15.748540332962815,247.78876735911038
176.72502574665293,189.07690750114733,15.597555805719653,15.597555805719653,247.9779888947223
176.04531410916576,189.73239714483907,15.625626409177821,15.625626409177821,248.15306956195917
175.36560247167864,189.80319653996642,15.519360477689595,15.519360477689595,247.12541509298273
174.68589083419153,190.78511886150892,15.325561684832486,15.325561684832486,247.40463439815107
174.0061791967044,190.16350558127465,14.684015178379239,14.684015178379239,247.41249072137913
173.3264675592173,191.63111003528056,15.23902661730325,15.239026617303253,247.02335300842162
172.64675592173018,191.95839071874803,14.809407578291289,14.809407578291289,247.5430664404793
171.967044284243,191.23522211113553,15.11646845724869,15.116468457248697,248.783026930755
171.28733264675589,191.74141016900717,14.476005072715354,14.476005072715354,248.01790245041894
170.60762100926877,190.8768311223292,14.98992557793611,14.98992557793611,247.22287404675296
169.92790937178165,191.63229951325175,15.093692898463994,15.093692898463994,246.3687192978229
169.24819773429454,191.9007301264605,14.611108452550402,14.611108452550402,247.4443905842551
168.56848609680736,191.7023845634496,14.474412737001256,14.474412737001252,247.6511172837968
167.88877445932025,192.18893158528442,14.639464012277509,14.639464012277516,247.55682628796646
167.20906282183313,191.6285411127768,14.932103242827095,14.932103242827095,247.38407214162146
166.529351184346,191.70016444888674,15.00079323531955,15.000793235319543,246.67982788504494
165.8496395468589,191.99225810975702,15.219222907460704,15.219222907460717,246.66224278124213
165.16992790937178,192.52924383638458,14.39616795178877,14.396167951788764,245.6880023996127
164.4902162718846,191.42155388213314,14.967861194141777,14.967861194141777,247.03848696241434
163.8105046343975,191.91767740367897,14.759130015264793,14.759130015264793,247.12626021385572
163.13079299691037,193.23305691191612,14.576651275763414,14.576651275763407,245.34606478132264
162.45108135942326,192.88443245982128,14.894741249108511,14.894741249108515,246.43763308994906
161.77136972193614,192.94407268943138,14.767042685292827,14.76704268529282,246.77046482479773
161.09165808444902,194.49437874804062,14.524884684133259,14.524884684133259,245.52366043489303
160.41194644696185,194.17819095339658,14.255731108655477,14.255731108655477,245.3976237675865
159.73223480947473,194.12667563340483,14.866939198539646,14.866939198539642,245.16912687645518
159.05252317198762,194.43731988378312,14.957094223118016,14.957094223118016,246.33454178620033
158.3728115345005,197.9096245246928,16.513968648583727,16.513968648583734,244.37082967675101
157.69309989701338,194.0478658894036,12.384621383420368,12.384621383420368,247.29376590309525
157.0133882595262,193.55117633578197,13.888140482416025,13.888140482416025,245.74674498209467
156.3336766220391,193.99305939695893,14.361402532321243,14.361402532321243,245.1956248860094
155.65396498455198,193.34487862770126,13.861940623948653,13.861940623948659,245.68869065965842
154.97425334706486,193.31984147742872,14.200718740164094,14.200718740164087,245.34328544226622
154.29454170957774,195.0421838085942,14.052777732707069,14.052777732707069,245.00442533080079
153.61483007209063,194.72396194995216,13.938732086116527,13.93873208611653,245.28054725143465
152.93511843460345,195.4235913176775,13.546658087480093,13.546658087480088,246.31934563669995
152.25540679711634,196.08471578922743,14.269273381110292,14.269273381110292,245.00279986521613
151.57569515962922,194.88698131868207,13.661867081811446,13.66186708181144,245.90451875975384
150.8959835221421,195.54499997962608,13.551186012569598,13.551186012569598,245.37964180952795
150.216271884655,195.15137282564694,13.668113889651607,13.668113889651611,244.8954108917739
149.53656024716787,195.0536911418046,14.570199084155833,14.570199084155831,244.02837910274755
148.8568486096807,195.7355281853283,13.99183820789559,13.99183820789559,244.17989192392096
148.17713697219358,195.39956022880727,13.711962875872024,13.71196287587202,244.9406551220422
147.49742533470646,195.84767091562577,13.590668981003718,13.590668981003718,244.74791414084154
146.81771369721935,195.3819025970819,13.318048573671343,13.31804857367135,244.77609577842128
146.13800205973223,197.0163483541835,11.17242518432689,11.17242518432689,245.35422680291734
145.4582904222451,196.63979947049248,13.12403840093912,13.124038400939128,243.87340712485465
144.778578784758,195.98064502399035,13.062791481949462,13.062791481949462,243.99394087011146
144.09886714727088,196.07259337625987,12.736009974664706,12.736009974664702,243.85089447477782
143.41915550978365,196.06260466392067,13.4456256630805,13.4456256630805,243.59450576867312
142.73944387229653,196.25990888702836,13.806572721119954,13.806572721119958,242.70845735995937
142.05973223480942,195.90094240002145,13.69293941543634,13.69293941543634,243.36917887795929
141.3800205973223,196.18069863215734,13.61585182880294,13.615851828802938,243.2380736670185
140.70030895983518,196.79639324927402,13.144745646110158,13.144745646110158,242.77545422398913
140.02059732234807,196.82320934894932,13.25379321229146,13.253793212291452,243.80722464648764
139.34088568486095,196.56988586248085,13.528902017535682,13.528902017535687,242.7210676538185
138.66117404737383,197.273559731852,13.192223497404743,13.192223497404736,242.74434734915314
137.98146240988672,197.22490127380027,13.128405871856677,13.12840587185668,242.0396716272026
137.3017507723996,197.84396302625328,12.798374413408613,12.798374413408613,243.41734424150386
136.62203913491248,197.92281691489734,12.819315964250057,12.819315964250054,242.6338668475974
135.94232749742525,198.20806893228882,12.726265921579685,12.726265921579694,242.45492318120472
135.26261585993814,198.66316325995933,12.642600234972665,12.642600234972667,242.4830550198768
134.58290422245102,198.82435302108834,12.2699344088864,12.2699344088864,241.57499661163774
133.9031925849639,198.12160168939914,12.84088820156479,12.840888201564786,242.40437052255086
133.2234809474768,198.73961508024018,12.959301936277212,12.959301936277212,242.3386024623317
132.54376930998967,198.80098886648412,12.576756051314874,12.57675605131487,241.3512555403462
131.86405767250255,198.6882346208575,12.59955039736772,12.59955039736772,240.4315498377253
131.18434603501544,197.9740186404265,12.32919456578167,12.329194565781675,241.42887929081493
130.50463439752832,199.27901682630815,12.257629936762314,12.25762993676231,240.9658574790744
129.8249227600412,199.3029460119479,12.325191072335986,12.325191072335986,241.32364159965778
129.1452111225541,198.11351967081814,11.939138206060395,11.939138206060399,242.2144058659453
128.46549948506697,199.28785646746587,12.078859754675518,12.078859754675515,241.50886129922904
127.78578784757974,199.463761107372,12.481568600455471,12.481568600455468,240.79588616755936
127.10607621009262,198.89764635118038,12.705882188464868,12.70588218846487,241.98406742665435
126.42636457260551,199.83433979706567,12.345041581166422,12.345041581166424,242.30465114451877
125.74665293511839,200.1856369276948,12.13571971119062,12.13571971119062,241.22516834184708
125.06694129763127,200.8433990369599,12.429955273442816,12.429955273442816,239.77826292709582
124.38722966014416,200.08577827225892,11.76091200927492,11.760912009274923,240.78556402234543
123.70751802265704,200.29281255720812,12.352547871556204,12.352547871556208,240.58271924579572
123.02780638516992,200.717225911904,12.186367454070218,12.186367454070226,240.55931676839356
122.34809474768281,199.73480729591245,12.218396436851778,12.218396436851778,241.8420558571195
121.66838311019569,200.60408007600793,11.991185952894192,11.991185952894192,240.20817924809333
120.98867147270857,201.97132158625402,11.683615634257974,11.68361563425797,240.26726859393665
120.30895983522134,200.55320386690514,11.997411112266528,11.997411112266533,241.21221224360528
119.62924819773423,201.1143113689594,11.653036975185168,11.653036975185174,241.05079309732199
118.94953656024711,201.0000672799512,11.965549844233038,11.965549844233038,239.86728749142105
118.26982492276,201.5181768579678,11.608964542828256,11.608964542828252,239.8705581677688
117.59011328527288,201.23419711905524,11.941537890939378,11.941537890939385,240.17499954345345
116.91040164778576,201.7081057909755,11.818664780752384,11.818664780752384,238.80885154529452
116.23069001029864,201.48230318560172,11.407576269619737,11.407576269619739,240.5260378281418
115.55097837281153,200.79187821553904,11.50314307455483,11.50314307455483,239.77711145598508
114.87126673532441,200.56199484054451,11.934493994010321,11.934493994010321,240.0808633758523
114.1915550978373,201.02085672318262,11.469886926891027,11.469886926891027,238.8756948528166
113.51184346035018,202.16292549720814,11.64180272730261,11.641802727302608,238.20204142348075
112.83213182286295,201.62268551439854,11.260440920378807,11.260440920378805,239.59886928938226
112.15242018537583,202.1186819826784,11.34672295137328,11.34672295137328,238.0867065550968
111.47270854788871,202.09405892380138,11.270071342288741,11.27007134228874,239.45228272126772
110.7929969104016,202.94457656285036,11.161662915169085,11.161662915169082,238.39889130636047
110.11328527291448,202.14978120132548,11.102240849884637,11.102240849884637,238.643974769259
109.43357363542736,202.40606609734033,11.193181815030727,11.19318181503072,238.78935172830933
108.75386199794025,202.73417676461614,10.577092682596103,10.5770926825961,239.13053851059388
108.07415036045313,202.69011498793688,11.089300017280193,11.089300017280186,238.31397953303932
107.39443872296602,202.69148272980317,11.009699861755896,11.0096998617559,239.24983053681345
106.7147270854789,203.90397768681376,10.707826859353444,10.707826859353442,238.03807993607663
106.03501544799178,203.85512388234204,10.89455687565294,10.89455687565294,237.6335205525783
105.35530381050455,203.695877171319,10.925665204864366,10.92566520486437,238.0590237121681
104.67559217301744,203.59271440605107,11.026300660123178,11.026300660123171,238.04670688178606
103.99588053553032,204.12462966219152,10.927655227995439,10.92765522799544,238.26477102858564
103.3161688980432,203.83777755572603,10.570383833985472,10.570383833985472,237.310620686781
102.63645726055609,204.78785602433044,11.113180861041997,11.113180861041997,237.00605139697225
101.95674562306897,204.07050551819555,10.903557720502171,10.903557720502176,238.39057265512778
101.27703398558185,204.20742019551327,10.82258340293769,10.8225834029377,237.28950528341187
100.59732234809474,204.34943417218523,10.887289657368964,10.887289657368964,237.5385917752617
99.91761071060762,204.44751899034983,10.406444325233188,10.406444325233192,236.9868717268604
99.2378990731205,204.9920228998051,10.456409574048239,10.456409574048239,236.58912485479323
98.55818743563339,205.16582116826933,10.618534165720694,10.6185341657207,237.4727293982732
97.87847579814627,205.3163468575468,10.192113842765954,10.192113842765954,236.75308039771508
97.19876416065904,205.58186581067307,10.267193151785197,10.267193151785198,237.1646690785425
96.51905252317192,205.28280944806366,10.605066364598168,10.605066364598171,236.12917312488642
95.8393408856848,205.64781041326412,10.361240851954305,10.361240851954305,237.1496991334483
95.15962924819769,205.23023502289783,10.839450981634368,10.839450981634368,236.7649847088965
94.47991761071057,205.96524837066454,10.578835271889549,10.57883527188955,237.44012742728566
93.80020597322346,205.91609152881225,10.224757142616939,10.224757142616935,236.1694402509385
93.12049433573634,205.9340627477482,10.474836620557081,10.474836620557083,235.7529619018141
92.44078269824922,205.6224867600983,10.563503841727202,10.563503841727204,236.1185915677469
91.7610710607621,205.45674084166907,10.540824045373684,10.54082404537368,236.13558939072837
91.08135942327499,206.75920963173914,10.499010533517191,10.499010533517188,234.7386824544269
90.40164778578787,207.1993706076925,10.127135737112667,10.127135737112662,235.27031236038994
89.72193614830064,206.1084636321602,10.117652193947361,10.117652193947357,235.13641321972054
89.04222451081353,206.49424165358164,10.049401974393223,10.049401974393223,235.74291267210145
88.36251287332641,206.355038096662,10.136211655458842,10.136211655458839,235.60273204021237
87.68280123583929,206.50284554312137,10.299650145506593,10.29965014550659,235.26139351225837
87.00308959835218,207.75634722517862,9.717430419637965,9.717430419637964,235.03435563475597
86.32337796086506,206.00921110324535,9.948033937686938,9.94803393768694,235.31879551429708
85.64366632337794,207.46191086573813,9.831158719643735,9.831158719643728,234.83335507225598
84.96395468589083,206.9560968347043,9.704727806381118,9.704727806381124,234.95645715334098
84.28424304840371,207.05168105237627,9.864506540356825,9.864506540356825,235.0402988065755
83.6045314109166,207.0567344156053,9.840991369363236,9.840991369363236,234.54722717989645
82.92481977342948,206.91679983307105,10.408979953698955,10.408979953698957,234.26365064452406
82.24510813594225,207.87544527088423,9.91651743598601,9.916517435986004,234.1814098990144
81.56539649845513,208.0995484689554,10.11341138419032,10.11341138419032,233.981539258017
80.88568486096801,207.76033427262968,9.800857430379699,9.800857430379695,233.90377569464894
80.2059732234809,208.79465247888115,9.934134283253092,9.934134283253085,234.5827376848957
79.52626158599378,208.84611449646712,9.733667468104514,9.733667468104514,233.61705718088595
78.84654994850666,209.30701342934307,9.620092003241538,9.620092003241536,234.63397460567572
78.16683831101955,208.71492262277755,10.004831056471557,10.004831056471557,234.6918063094134
77.48712667353243,208.60590456913445,9.957316955974006,9.957316955974006,234.31210331421605
76.80741503604531,208.73131051323048,10.002189163798148,10.002189163798146,233.99568690113625
76.1277033985582,209.3263764628405,9.265638271545736,9.265638271545736,234.0748868963367
75.44799176107108,209.28698100516942,9.212546942280614,9.212546942280614,234.24621998799972
74.76828012358385,209.44334549572608,9.365475742370933,9.36547574237093,233.8119690305011
74.08856848609673,209.69312335779432,9.674523377151747,9.674523377151743,233.56473799092504
73.40885684860962,209.60904348680305,9.306188299262448,9.306188299262443,233.0161888914217
72.7291452111225,209.61811306821346,9.690038482472376,9.690038482472383,233.51296077441998
72.04943357363538,209.94101680088053,9.378487597937598,9.378487597937601,232.89979868580178
71.36972193614827,210.0510683508604,9.449130256348985,9.449130256348985,232.61456198701424
70.69001029866115,209.67138711005762,9.387642993084732,9.387642993084729,231.34931977626212
70.01029866117403,209.28268706560803,9.516013509898205,9.516013509898201,232.94670615064072
69.33058702368692,210.1755611667688,9.156298182626069,9.156298182626063,232.68932526013236
68.6508753861998,209.72155472317084,8.910005978791151,8.910005978791157,232.89976952402824
67.97116374871268,209.94647793359601,9.095764188281224,9.09576418828122,233.02553593408845
67.29145211122557,210.45311377835984,9.185404366807614,9.185404366807623,231.9525670089564
66.61174047373834,210.79818008944235,9.147835358595406,9.147835358595412,232.22373945103163
65.93202883625122,211.06636558370073,8.819014391496511,8.819014391496511,232.56021344880932
65.2523171987641,211.60635998371367,8.532167394041958,8.532167394041958,232.12170445653715
64.57260556127699,211.18510508581292,8.821755770935438,8.821755770935436,232.98169907553546
63.89289392378987,211.6762161998051,8.66426935063117,8.664269350631164,231.57357770731073
63.213182286302754,210.36963430623607,8.527934659860874,8.527934659860868,230.74008112596397
62.53347064881564,210.9290931673912,8.893226062752277,8.893226062752284,231.43960888153737
61.85375901132852,212.0118411905375,9.183310942562754,9.18331094256276,231.6040280535757
61.174047373841404,211.8115692732013,9.03098331318502,9.03098331318502,231.93709806241677
60.49433573635429,211.22553170491878,8.930345557131359,8.930345557131362,232.3373867659959
59.81462409886717,211.71307637965828,8.861526598838179,8.861526598838172,230.81749950150672
59.13491246137994,212.47243213689285,8.703237650147488,8.70323765014749,230.838775858132
58.455200823892824,211.9405982053192,8.666267225428633,8.666267225428632,231.3961017692183
57.77548918640571,211.99395875530968,8.768631372692775,8.768631372692779,231.66836089115216
57.09577754891859,212.46512712925016,8.503511034013522,8.503511034013528,230.65721069276617
56.416065911431474,212.42249206104302,9.073044988868253,9.073044988868253,231.33674560692637
55.73635427394436,213.04686855174205,8.95630119473523,8.95630119473523,230.43991902813625
55.05664263645724,213.12213732649778,7.899693434641321,7.899693434641321,231.2486642601728
54.376930998970124,212.86219150390227,8.668421689771153,8.668421689771156,230.94234061548838
53.69721936148301,213.45004796179617,8.806903282052144,8.806903282052142,230.24591127973193
53.01750772399589,213.6334664039376,8.575841636376175,8.575841636376172,230.76644862912383
52.337796086508774,213.348875487476,8.522737696984484,8.52273769698448,231.40424985582754
51.658084449021544,212.80589721227088,8.688503464345835,8.688503464345835,230.1200011881959
50.97837281153443,213.32457305030792,8.551509283450446,8.55150928345044,230.3325397103939
50.29866117404731,213.91278939729756,8.346256799963509,8.346256799963506,230.0959718535787
49.618949536560194,213.51616204644546,8.17080496860419,8.170804968604186,230.50782930145624
48.93923789907308,213.97338626470176,8.222612645845082,8.222612645845087,230.67848102236684
48.25952626158596,214.39396573775412,7.9183234352597855,7.9183234352597855,230.57496576636845
47.579814624098844,214.36509317645363,7.92351627262159,7.92351627262159,231.69433640409355
46.90010298661173,214.76865835164105,8.241232075730933,8.24123207573093,230.19392231983878
46.22039134912461,214.7550838876458,8.303450515925984,8.303450515925977,230.06070772758088
45.540679711637495,214.70279653070355,7.737200406454822,7.7372004064548205,231.66238443581418
44.86096807415038,214.8214605828598,8.268696128725873,8.268696128725871,230.58795842855096
44.18125643666315,214.95872478013925,7.934545198209078,7.934545198209078,229.6417770892708
43.50154479917603,214.9611859102735,7.862842139614287,7.8628421396142825,229.56506027509445
42.821833161688915,214.7783872490397,7.998721288221293,7.998721288221289,230.6612999475829
42.1421215242018,214.9870048215947,7.599074285196376,7.599074285196379,230.74518779967698
41.46240988671468,216.10599226775528,8.196437000618287,8.196437000618294,229.59796874952954
40.782698249227565,215.44343469774577,7.858000054376046,7.85800005437604,230.77086798590122
40.10298661174045,215.77252685083155,8.312201217012998,8.312201217013003,228.9069291257214
39.42327497425333,215.49825761865614,8.023762273458924,8.023762273458924,229.95624829619032
38.743563336766215,215.7746444103078,7.6003496986493,7.6003496986493,228.96651135582488
38.0638516992791,216.5623040155819,7.831264481029453,7.831264481029453,229.3201436475975
37.38414006179198,216.52820652425825,7.95915693691908,7.959156936919086,229.4561600823644
36.704428424304865,215.56012370018416,8.04297460630131,8.042974606301307,229.31918968101795
36.024716786817635,216.9796307849601,7.809083882675436,7.80908388267543,229.08535408269583
35.34500514933052,216.63975802494537,7.882916636851877,7.882916636851878,228.54166320086955
34.6652935118434,217.1830563531751,7.55877572835049,7.558775728350496,228.390401056724
33.985581874356285,216.570699838069,7.750467375201405,7.750467375201405,227.65244009802953
33.30587023686917,217.08237837279907,7.910857626816893,7.910857626816899,228.59009213456844
32.62615859938205,217.06611210619798,7.226861715888903,7.226861715888905,229.29203321855968
31.946446961894935,217.09711094612965,7.153802083935126,7.1538020839351235,229.3570795026496
31.26673532440782,218.19639237908254,7.323550270929284,7.323550270929281,229.0534062445562
30.587023686920702,217.16715016822045,7.239776478786144,7.239776478786148,229.10607275948203
29.907312049433585,219.81422957702773,6.519820933515499,6.519820933515502,228.03292212249602
29.22760041194647,219.85241572595694,6.565761444117793,6.565761444117797,227.6329385475077
28.54788877445924,221.20099974048279,6.276935290487707,6.276935290487709,227.65653226854297
27.868177136972122,221.28924916638786,6.055295224291328,6.055295224291328,228.26085074645906
27.188465499485005,220.99375032284203,6.841246383062183,6.841246383062189,228.22905078249732
26.50875386199789,221.15635941182325,6.522826096065436,6.522826096065432,227.05566338226635
25.829042224510772,220.8504233176698,6.4268762125490655,6.4268762125490655,227.8485210022856
25.149330587023655,222.0527053088763,5.9383105309005275,5.9383105309005275,228.02049188516577
24.46961894953654,221.74712086006778,6.077078083574586,6.077078083574582,227.19597679952255
23.789907312049422,221.24133590253751,6.330907610698345,6.330907610698343,227.76504045634465
23.110195674562306,221.49619903875833,6.097360206538891,6.097360206538894,226.89219714907853
22.43048403707519,219.82846820054434,6.285882639775971,6.285882639775971,226.35368090486213
21.750772399588072,220.95214889772797,6.640880738185826,6.640880738185836,226.6886148637774
21.071060762100842,221.0637978189514,6.610528270881925,6.610528270881923,226.40065566676876
20.391349124613726,221.9300309970996,6.223477907049399,6.223477907049396,226.29397779215154
19.71163748712661,221.00936695213395,6.527952228599262,6.52795222859926,226.1809797495541
19.031925849639492,221.5115355857991,6.5054824278524395,6.505482427852438,227.40278830436594
18.352214212152376,222.03506214455928,6.409375662251283,6.4093756622512865,226.92712494980486
17.67250257466526,221.34564375349873,6.0092420914834275,6.0092420914834275,227.5425890723432
16.992790937178142,222.5448443234271,6.016188185167797,6.016188185167799,224.60403876695207
16.313079299691026,222.658335982385,5.489585156514615,5.489585156514618,226.81585326884604
15.63336766220391,222.77809546618582,5.754337410629355,5.754337410629352,227.3963699819054
14.953656024716793,222.31443389349815,5.797298463821663,5.79729846382166,226.84649176842638
14.273944387229676,222.4198575252802,5.419623074398175,5.419623074398169,225.5411758407741
13.594232749742446,222.63732139224717,5.616241906275938,5.6162419062759374,227.320808339433
12.91452111225533,222.11879548695688,6.61403697126267,6.614036971262673,225.83811278824206
12.234809474768213,221.64423568801902,6.049988778700188,6.049988778700188,226.91652133315023
11.555097837281096,222.3534674717498,6.19731034148859,6.1973103414885875,226.8906026674817
10.87538619979398,222.32038678940305,6.410943405766703,6.410943405766707,225.90235133383274
10.195674562306863,222.89270342165074,5.781447027893561,5.781447027893561,227.76964283751616
9.515962924819746,222.85233830488883,5.54332634998002,5.543326349980016,227.3696284285195
8.83625128733263,222.86572447675738,5.985670521561201,5.985670521561201,226.7373691031793
8.156539649845513,222.70477256892798,5.741988906644696,5.741988906644697,227.23889689235216
7.476828012358396,222.3492882557304,6.071537408400765,6.071537408400763,227.58416488561042
6.79711637487128,222.90912645112613,5.3593980745132015,5.359398074513207,227.73656157651897
6.117404737384163,223.07478037454226,5.370680586806117,5.37068058680612,227.00259496181312
5.437693099896933,221.96044969462923,5.513274809262114,5.513274809262117,227.19350447238736
4.757981462409816,222.48103174099018,5.700853227123685,5.700853227123691,226.83991931155808
4.0782698249227,223.2246537587781,5.055322339384197,5.055322339384195,227.1245457709863
3.398558187435583,223.24969467923697,5.61900020324605,5.61900020324605,227.26636222396172
2.7188465499484664,222.94026903245032,5.8976302226985595,5.897630222698562,226.12817729883156
2.03913491246135,222.8241736497573,6.116374526932429,6.116374526932429,226.71141759924365
1.3594232749742332,222.4020851980017,5.701399513960142,5.701399513960145,227.3886681186909
0.6797116374871166,223.61738705157038,5.415914154576371,5.415914154576374,227.297322381559
0.0,223.0137959745942,5.9056493038242115,5.9056493038242115,227.3011741585137
