z in mm,sigma xx in mm2,sigma xy in mm2,ysigma yx in mm2,sigma yy in mm2
660.0,234.74921284623804,6.340450102815638,6.34045010281564,210.0081815194158
659.377358490566,234.2673381827811,6.696004223371315,6.696004223371315,209.8613899472567
658.7547169811321,215.24060308512077,7.604486232450854,7.604486232450854,186.51949386785697
658.1320754716982,215.63357906754288,7.571564689073331,7.571564689073329,186.5094238338946
657.5094339622641,217.39365391797782,7.270611439175276,7.270611439175277,189.7390441881604
656.8867924528302,217.28131380625732,7.210995144191427,7.210995144191426,189.1666101353268
656.2641509433962,217.84069876323662,7.352727922605127,7.352727922605127,189.21888974663847
655.6415094339623,217.9599449662221,6.9320695009363025,6.9320695009363025,189.77346303856459
655.0188679245283,217.9269607491871,7.247196424251345,7.247196424251345,189.3836870062286
654.3962264150944,218.37158527105876,7.046358580954808,7.046358580954811,190.00893956255692
653.7735849056604,218.26733439451806,6.88274935034242,6.882749350342418,189.86752997230525
653.1509433962265,218.00749686412206,7.251693826858659,7.251693826858659,190.33510930579595
652.5283018867924,217.5118420679675,7.10229243958011,7.102292439580108,189.0031591009305
651.9056603773585,217.9122439920271,6.797984107925481,6.7979841079254815,189.05337189815887
651.2830188679245,218.1749632397072,6.9323737674154255,6.932373767415426,189.7417703068623
650.6603773584906,218.52812666455208,7.153782028619641,7.153782028619641,189.7049608308608
650.0377358490566,218.6277585461431,7.005435667536613,7.005435667536613,190.9489479000823
649.4150943396227,218.39946494701027,7.376442523442864,7.376442523442867,191.0954459263251
648.7924528301887,218.12744624497,7.055742226868451,7.0557422268684515,190.31890374785277
648.1698113207547,218.96089169804648,7.3998998569592835,7.3998998569592835,190.3237982106027
647.5471698113207,218.89865857075662,7.2070493489863745,7.207049348986374,191.6587671683686
646.9245283018868,218.99300572360536,6.8451128145392826,6.8451128145392826,191.34528706738664
646.3018867924528,218.815357801076,7.100039874377097,7.1000398743770985,191.42801067323865
645.6792452830189,219.10691461510288,6.951011742265294,6.951011742265294,191.58148976692652
645.0566037735849,219.8358445799256,7.162092887325738,7.162092887325739,191.18137464851256
644.433962264151,218.6965621780385,7.306390187302112,7.306390187302112,191.49777050434562
643.811320754717,218.74233004058337,7.1263364176569555,7.126336417656956,191.3855759490669
643.188679245283,218.55786076358848,7.03877871747737,7.03877871747737,191.03059815859064
642.566037735849,219.31515735757333,7.412764406628569,7.412764406628569,191.38042540525234
641.9433962264151,219.43299327762477,7.082527121947692,7.082527121947691,192.15149043424702
641.3207547169811,219.33243951224284,7.023511073260325,7.023511073260322,191.84655873579837
640.6981132075472,219.47399437292907,7.086283112771079,7.086283112771079,192.2761319533877
640.0754716981132,212.7012275474823,7.566473543675156,7.566473543675158,183.9697768625649
639.4528301886793,211.92273578612327,7.614220233153443,7.614220233153443,182.33217396914142
638.8301886792453,211.94546223297212,7.94131978040873,7.94131978040873,183.35750511484375
638.2075471698113,211.08822989027783,7.950846527835681,7.950846527835683,182.58219224210836
637.5849056603773,211.61590029493436,7.448216330794293,7.448216330794295,183.43596893352168
636.9622641509434,212.12797997817657,7.538970317302347,7.538970317302347,184.29101549519348
636.3396226415094,213.30489706689698,7.739834560652618,7.73983456065262,184.73686299210584
635.7169811320755,212.7051719082417,7.928646878870962,7.928646878870962,183.9802212539442
635.0943396226415,212.37006312970487,7.685116732662224,7.685116732662224,184.66536085353195
634.4716981132076,212.0657654818628,7.977594899841682,7.977594899841682,184.19328148967836
633.8490566037735,212.26238744171022,7.796702750389131,7.796702750389132,185.05155562916798
633.2264150943396,212.61631796673075,7.94341606791865,7.943416067918649,184.7505914009366
632.6037735849056,212.53649537135152,8.15610482878794,8.15610482878794,185.16592531833902
631.9811320754717,213.45918371424207,8.181731602590812,8.181731602590814,185.252552318092
631.3584905660377,213.70259993159308,7.777799239291535,7.777799239291535,185.37308699250067
630.7358490566038,213.21098006429762,7.715786014761838,7.715786014761836,184.57933428871036
630.1132075471698,213.36566284871063,7.63561082970463,7.635610829704631,185.8883161413347
629.4905660377359,212.38941230133983,7.739828541723976,7.739828541723977,184.95885340283743
628.8679245283018,212.4206560315835,7.844429042795699,7.844429042795699,185.6354375976384
628.2452830188679,212.62790091580274,7.623880284168602,7.623880284168602,185.3650990361109
627.622641509434,212.82837137388015,7.576519884943534,7.576519884943534,185.38585121333313
627.0,211.93760929603863,7.993312190547531,7.993312190547529,185.26869558166115
626.377358490566,213.27744639801938,8.191308528708316,8.191308528708316,186.30953466628887
625.7547169811321,212.7707927628522,8.029952591166586,8.029952591166586,186.67216184008663
625.1320754716982,212.80004772608197,7.841632367244828,7.84163236724483,186.22940613549656
624.5094339622642,212.09189246169635,7.547726432696036,7.5477264326960345,185.679456412002
623.8867924528302,212.79317382084005,8.214850972281202,8.214850972281198,186.84894282623006
623.2641509433962,212.71983539911056,8.127140573281144,8.127140573281144,186.02002595388424
622.6415094339623,212.8211652232113,8.108713822940716,8.108713822940716,186.152867752421
622.0188679245283,212.80338586147747,8.188546360334403,8.188546360334403,185.93719922329416
621.3962264150944,212.72568255028526,8.021462426105847,8.021462426105849,186.7371034925388
620.7735849056604,212.66967526681796,7.8217264105552005,7.821726410555201,186.33139970271912
620.1509433962265,212.66973231905675,7.907158631802949,7.90715863180295,187.190801890936
619.5283018867924,212.5104822182461,8.483522206856717,8.483522206856717,187.0890975488706
618.9056603773585,212.6256396458381,8.271739722211326,8.271739722211326,187.34686561729956
618.2830188679245,212.33136674968,8.350129097426736,8.350129097426736,187.84869240016945
617.6603773584906,212.54937056475623,7.7381411802002145,7.738141180200216,187.36626789609073
617.0377358490566,212.28447224932663,8.0510107065607,8.051010706560701,187.8320351418916
616.4150943396227,212.8936182957383,7.921462355816347,7.921462355816348,187.3917358200856
615.7924528301887,212.3959824425574,8.157391053370693,8.157391053370691,187.4446401652642
615.1698113207547,212.96396651200152,7.954026583760438,7.954026583760438,188.05133878015067
614.5471698113207,212.53604274225276,7.918737210285518,7.918737210285518,187.79531625574919
613.9245283018868,212.6255398421788,8.437678071984664,8.437678071984665,188.20211871628524
613.3018867924528,213.01868221619537,8.14425221255275,8.14425221255275,188.3605266066528
612.6792452830189,211.7406743676828,8.502373741787155,8.502373741787153,188.27755877619055
612.0566037735849,212.02836865405553,8.3455398852565,8.345539885256494,187.56437039325164
611.433962264151,211.65496492296617,8.193649726847353,8.193649726847353,187.99452484947994
610.811320754717,210.96559314145836,8.230094723725443,8.230094723725443,188.03684378459744
610.188679245283,211.83967861045957,8.540688041953478,8.540688041953478,187.85470862445572
609.566037735849,211.89513626234404,8.642732403478254,8.64273240347825,188.4533754580247
608.9433962264151,211.45180334798965,8.617785815687869,8.617785815687869,188.40102223734104
608.3207547169811,211.61366062920672,8.378561084388071,8.378561084388071,189.2360456658565
607.6981132075472,211.071867830759,8.607599803902696,8.607599803902696,189.02086320886798
607.0754716981132,212.11390515366722,8.513457932255754,8.513457932255754,189.0008468789381
606.4528301886793,212.13252302342667,8.670298747320931,8.670298747320931,189.15374093682914
605.8301886792453,211.44168523754746,8.510151588500927,8.510151588500927,188.9722110610537
605.2075471698113,211.09334498939955,8.59115747807275,8.59115747807275,188.91675087137114
604.5849056603773,211.58993942363566,8.895458369348205,8.895458369348203,189.4390273463339
603.9622641509434,212.0542627366074,8.741079611537561,8.741079611537561,189.1710631803833
603.3396226415094,211.79525541425403,8.606686156289632,8.606686156289632,188.6447975278208
602.7169811320755,211.25489661445775,8.827768056275696,8.8277680562757,189.0143214229822
602.0943396226415,211.21625160216416,8.708265628843652,8.708265628843652,189.4001107679497
601.4716981132076,210.91209583937876,8.445558811086414,8.445558811086414,189.0270960036024
600.8490566037735,211.4856703238767,8.634919664460726,8.634919664460725,188.9990430459855
600.2264150943396,210.79121306633527,8.91793212127807,8.91793212127807,188.88772051836972
599.6037735849056,210.9895006200637,8.698445649897952,8.698445649897952,189.45580414673282
598.9811320754717,210.61316719965174,8.904512286322108,8.904512286322108,189.5716808213676
598.3584905660377,211.35693138146874,8.79277882683614,8.79277882683614,188.98123972646852
597.7358490566038,212.12568958531887,8.949093735203663,8.949093735203663,189.93040698622468
597.1132075471698,211.4160501230801,9.226928783158689,9.226928783158689,189.7962289121654
596.4905660377359,211.97621778840406,9.04597540594455,9.045975405944548,189.50012791793003
595.8679245283018,211.44426186435064,9.033639644263548,9.033639644263548,189.6640721485708
595.2452830188679,211.08279782787687,8.900973321637716,8.900973321637718,190.2366472663151
594.622641509434,210.73062507724066,9.412709081986929,9.412709081986927,190.44662580203268
594.0,211.720032158125,8.821784584657845,8.821784584657845,189.65030418925832
593.377358490566,211.0097738072012,9.016467708500826,9.01646770850083,191.17363233534476
592.7547169811321,211.48997392176716,8.838693890224672,8.838693890224674,190.48318518805897
592.1320754716982,211.15015945247754,9.222025304368177,9.222025304368179,190.3579599084461
591.5094339622642,211.94263368245342,9.030189087573381,9.030189087573383,191.24242328137458
590.8867924528302,210.93662158687192,9.134659652630885,9.134659652630889,191.03444831679568
590.2641509433962,210.89099289238595,9.168919671017019,9.16891967101702,190.19442955947986
589.6415094339623,211.3207106325293,9.370840589810655,9.370840589810657,190.78886374541153
589.0188679245283,210.62319156511546,9.232606512860087,9.23260651286009,191.62459821678542
588.3962264150944,211.09433446068732,9.456360061268335,9.456360061268331,191.05491390114383
587.7735849056604,211.5595589329007,9.178607095349218,9.178607095349221,190.4063476828084
587.1509433962265,210.3299730713784,9.36937797592874,9.369377975928742,191.35567226210634
586.5283018867924,210.93518046999372,9.646321382386606,9.646321382386606,191.57765853670875
585.9056603773585,210.71948808888865,9.32641365321256,9.32641365321256,191.71653661911265
585.2830188679245,211.6315610981758,9.241464396146455,9.241464396146455,192.0080433742361
584.6603773584906,210.97950949693765,9.427413104501268,9.427413104501268,191.44503397515254
584.0377358490566,210.43911704512223,9.210361718474063,9.210361718474061,191.63831026515962
583.4150943396227,210.64923164298406,9.269118080937915,9.269118080937913,191.3625306654881
582.7924528301887,210.4227861692594,9.644753562812367,9.644753562812367,192.44711945481714
582.1698113207547,210.23817307049396,9.337298943985981,9.337298943985981,192.17266760727472
581.5471698113207,210.98163696610732,9.605423955650712,9.605423955650714,191.84437498623706
580.9245283018868,210.57474031556947,9.309354305339076,9.309354305339076,192.6644066456771
580.3018867924528,210.22486004636667,9.755434775488217,9.755434775488217,192.46502548357162
579.6792452830189,210.6401562406181,9.543599137960141,9.54359913796014,192.2951187007269
579.0566037735849,210.31433642645683,9.73458247521777,9.734582475217774,192.4600483556321
578.433962264151,210.87231089307943,9.256055958317795,9.256055958317798,192.91101462600042
577.811320754717,210.46274934589914,9.665405150911129,9.665405150911129,192.56398341828998
577.1886792452831,209.43708704296517,9.561559099599329,9.561559099599329,191.86289217685513
576.566037735849,210.52768338108828,9.2710837052193,9.2710837052193,192.5602378742683
575.9433962264151,210.7186890003099,9.485076495000685,9.485076495000683,193.21985977010345
575.3207547169811,210.7524956397264,9.53381921166343,9.53381921166343,192.30583669431763
574.6981132075472,209.87072887227936,9.608417291260952,9.608417291260952,192.14683408087367
574.0754716981132,210.27084436909317,9.493274711563563,9.493274711563565,192.4171820643495
573.4528301886793,210.17801002629037,9.73547192045349,9.735471920453492,192.81211673704104
572.8301886792453,210.0081744167618,9.527974929682983,9.527974929682982,191.95905974703498
572.2075471698113,210.04019288849128,9.923072037056789,9.92307203705679,192.18082820228344
571.5849056603773,209.95326719549564,9.598892279931158,9.598892279931155,192.51795507553535
570.9622641509434,209.46890692546623,9.550433314439566,9.550433314439566,192.65422583599027
570.3396226415094,210.04016301909624,9.429520367860258,9.429520367860258,193.0258572093716
569.7169811320755,210.1390880545281,9.566518917578493,9.566518917578495,192.44379294419917
569.0943396226415,209.42782299647564,9.936449195540542,9.936449195540542,193.34212113840496
568.4716981132076,209.06695899413566,9.681910887532725,9.681910887532727,194.02192555947872
567.8490566037735,208.94543816237857,9.779050973143232,9.779050973143233,193.07771005804932
567.2264150943396,209.43466522606005,9.890772600645557,9.890772600645557,193.06293694831623
566.6037735849056,209.19563784328082,9.904508276743583,9.90450827674358,193.76438159378907
565.9811320754717,209.04508592462682,10.056506125907879,10.05650612590788,193.13708097207905
565.3584905660377,208.9143778384987,10.110096004463658,10.110096004463658,193.8220892945655
564.7358490566038,209.5198275952585,10.120232147739918,10.120232147739918,193.38205088962732
564.1132075471698,209.3254528002627,10.10616408484456,10.106164084844558,193.588835283085
563.4905660377359,209.047612612245,10.032124407194942,10.032124407194944,193.29756084808432
562.8679245283018,206.540844725965,9.842877981776361,9.842877981776361,191.27450804876338
562.2452830188679,206.95712306483418,10.0269559737974,10.0269559737974,192.2673078903652
561.622641509434,207.186973432272,10.272537556667672,10.272537556667672,191.05256430647214
561.0,206.80052801765277,10.191504670354611,10.191504670354611,190.74055289125334
560.377358490566,206.4680171826468,9.916034567130387,9.916034567130387,191.8188013523271
559.7547169811321,206.70154493415748,10.059345841938779,10.059345841938777,192.47239839053765
559.1320754716982,206.85179664496977,10.126365091787907,10.126365091787907,191.82626543330213
558.5094339622642,206.34173879647466,10.346467058945363,10.346467058945363,191.6365918783076
557.8867924528302,207.01488980509288,10.557084933341304,10.557084933341306,192.37954744758014
557.2641509433962,206.37325775660767,10.458166985904898,10.458166985904898,191.57882397983948
556.6415094339623,206.81564659478775,10.429651936104648,10.429651936104644,191.775037557023
556.0188679245283,206.39074112327373,10.543618316359035,10.543618316359035,192.01930675676877
555.3962264150944,205.77476712598664,10.518790910637561,10.518790910637561,193.1055047423392
554.7735849056604,206.21924931251698,10.230503131578649,10.230503131578653,192.65735837073177
554.1509433962265,205.86550273267218,10.337635454119933,10.337635454119933,192.16734806696707
553.5283018867924,206.1771702769868,10.705416240395875,10.705416240395873,192.3940676584975
552.9056603773585,205.72033948995454,10.582924956145739,10.582924956145739,192.3948599679914
552.2830188679245,206.04536789927656,10.681189294730123,10.68118929473012,192.14306247390778
551.6603773584906,205.61976378962268,10.686289121178175,10.686289121178175,192.31439859700885
551.0377358490566,206.38666628667494,10.602016019419533,10.602016019419533,191.991436036581
550.4150943396227,205.33547111431253,10.706354456254392,10.706354456254392,191.60603914922916
549.7924528301887,205.1501941193275,10.420381779571164,10.420381779571162,192.746334627596
549.1698113207547,205.62649172105372,10.540706659416553,10.540706659416553,192.60833763038926
548.5471698113207,204.75736015130738,10.57108890086268,10.571088900862676,193.2525521452839
547.9245283018868,205.22536593386363,10.75403600871456,10.75403600871456,191.90361584027502
547.3018867924528,204.90960221137848,10.467321762315585,10.46732176231558,192.6410615515539
546.6792452830189,204.72255896725102,11.054588554549053,11.054588554549053,192.90821969532263
546.0566037735849,204.8499472436471,10.716436683960994,10.716436683960994,192.5858794359726
545.433962264151,204.3639370731006,10.689363861676675,10.689363861676675,192.51271558139948
544.811320754717,202.97741478479853,10.890489808933305,10.890489808933305,191.61899687331052
544.1886792452831,204.2011313225998,11.19478274934725,11.194782749347247,192.0734171963668
543.566037735849,204.38641804269685,10.52217451823613,10.522174518236133,191.82980905595298
542.9433962264151,204.19234724852342,10.969897794902495,10.969897794902497,192.93742285343023
542.3207547169811,204.8121340915734,11.08360025407322,11.083600254073222,192.45657024395112
541.6981132075472,203.89246394619255,10.452796459299245,10.452796459299249,192.29979243139383
541.0754716981132,203.68309012721397,11.064764286703411,11.064764286703413,192.73178802235373
540.4528301886793,203.54086245362402,11.014490404727084,11.014490404727082,193.05128073737296
539.8301886792453,203.86773929839768,11.052893790192877,11.05289379019288,192.336184352881
539.2075471698113,203.12254183951993,11.281169436631119,11.281169436631119,192.8808067697011
538.5849056603773,202.58139149970802,10.894400194187597,10.894400194187597,192.2717429896571
537.9622641509434,203.88919035435958,11.028414769694331,11.028414769694331,191.99661564332166
537.3396226415094,204.59845454357006,11.298664523509126,11.29866452350913,192.12295539426532
536.7169811320755,203.73578600528214,11.000233594293586,11.000233594293586,193.20108949541773
536.0943396226415,204.17439708605747,11.20540360623368,11.205403606233679,192.4876325381726
535.4716981132076,203.44898037848384,11.255349296540762,11.255349296540762,192.74080705363215
534.8490566037735,203.75904468724372,11.121306548068754,11.121306548068754,193.13291261098794
534.2264150943396,202.84347355049383,11.267607367645406,11.267607367645406,193.53160873414987
533.6037735849056,203.14154983117055,11.540464576832928,11.540464576832928,193.39282121881288
532.9811320754717,202.92116308397723,11.233717759033578,11.23371775903358,193.337489861918
532.3584905660377,202.62529751852497,11.566294930223368,11.566294930223368,193.55302688026194
531.7358490566038,202.4502473240362,11.236923675104071,11.236923675104071,193.2155485263683
531.1132075471698,202.77407429174423,11.474207366061322,11.474207366061322,193.40445596405712
530.4905660377358,202.98896077903908,11.51632561362929,11.516325613629292,193.7822318191773
529.867924528302,202.4435017782284,11.692748076229426,11.692748076229426,193.6728182638577
529.2452830188679,202.9324684903215,11.12618219551635,11.126182195516352,194.4727410060667
528.622641509434,201.4996099315201,11.745233160852134,11.745233160852136,194.02944989024704
528.0,200.76291728316104,11.769386947347684,11.769386947347684,194.51725405270383
527.377358490566,201.18246313888568,11.787613920744048,11.787613920744048,194.24049992593675
526.7547169811321,200.84574228641455,11.83344383852749,11.83344383852749,195.61887996020016
526.1320754716982,201.50601548001683,12.06889300226912,12.068893002269123,194.40730056660504
525.5094339622642,201.4184487017526,12.30490225828725,12.30490225828725,194.1681407758053
524.8867924528302,200.53827367506688,12.047019610061016,12.04701961006102,194.891547520976
524.2641509433962,200.06754265316172,11.837200291874602,11.837200291874606,194.57388576031488
523.6415094339623,200.74425379881924,12.2389251691313,12.2389251691313,195.12930281350026
523.0188679245283,200.94129554109756,12.34015698542838,12.340156985428383,195.67037063870546
522.3962264150944,200.9153809514116,12.182743098736356,12.18274309873636,195.16196007314377
521.7735849056604,201.21950877470226,12.121322941832165,12.121322941832169,195.3264750954886
521.1509433962265,201.16523532060066,12.367850100196996,12.367850100196996,195.2497531211554
520.5283018867924,200.87604383666945,12.503970727479183,12.50397072747918,195.4539183911332
519.9056603773585,200.64296124335468,12.516711671566583,12.516711671566583,196.1897697264964
519.2830188679245,200.98558110413333,12.174874849472234,12.174874849472234,195.97511075159701
518.6603773584906,199.7621460117985,11.985177454317938,11.985177454317942,195.37033367440478
518.0377358490566,199.88111603449067,12.1953664219364,12.1953664219364,195.89603837163529
517.4150943396227,199.7009452308936,12.330059285893979,12.330059285893979,195.84297111720983
516.7924528301887,200.48398111634606,12.423990898592493,12.423990898592493,195.4641146801237
516.1698113207547,200.3995998781768,12.309938761623844,12.309938761623844,195.12169468719148
515.5471698113208,199.98330074361675,12.278669978548209,12.27866997854821,195.1614889398033
514.9245283018868,200.07135794269556,12.429847270699565,12.429847270699565,195.5132506030103
514.3018867924528,199.516810337157,12.293220078427982,12.293220078427982,194.60520474828266
513.6792452830189,199.7131873946131,12.634347334761289,12.634347334761294,195.55911475762218
513.0566037735849,199.8489339873423,12.387521769604152,12.387521769604152,194.54442782917968
512.433962264151,199.10882770976704,13.013375356007497,13.013375356007499,195.83051866524445
511.811320754717,198.8614582347614,12.5429557491906,12.5429557491906,194.82752766070212
511.188679245283,198.94485334285048,12.548447024789239,12.54844702478924,195.80641617344438
510.566037735849,198.81537900023312,12.647825534517601,12.647825534517601,194.85337156446715
509.9433962264151,199.340100167412,12.92514247218374,12.92514247218374,195.64930817614388
509.3207547169811,199.5213019073651,12.74772169640731,12.747721696407313,196.65928239364308
508.6981132075472,198.84142278881097,12.771666112272028,12.771666112272028,196.05969608665777
508.07547169811323,199.01565004833947,12.507741685364401,12.507741685364401,196.4058795833473
507.4528301886793,199.196418841585,12.695993848638334,12.695993848638333,195.85005841936544
506.8301886792453,199.2018871829132,12.730023055493026,12.730023055493026,195.29494726168306
506.20754716981133,199.0696175827721,12.847949405462055,12.847949405462055,196.26932716805914
505.58490566037733,198.9765387115563,12.937764349995312,12.937764349995312,196.90011063127477
504.9622641509434,199.08097920481615,13.072662902082088,13.07266290208209,196.30981829038575
504.33962264150944,199.14792066565758,12.757032853466093,12.757032853466095,197.29318698497164
503.7169811320755,199.17194467042523,12.700187577794814,12.700187577794814,196.64995177223787
503.09433962264154,199.44841523769847,12.890149098052,12.890149098051998,196.62608634730384
502.4716981132076,198.43904469265956,12.854200502018434,12.854200502018434,196.8836223005492
501.8490566037736,198.7903935366184,13.023150786060885,13.023150786060889,197.06733454814633
501.22641509433964,199.3768109944731,12.677774426897393,12.677774426897399,196.96736452012777
500.60377358490564,199.15085799508117,12.929054939042482,12.929054939042482,197.63129416720312
499.9811320754717,198.25935804694726,13.155315499127457,13.155315499127457,197.1706695917663
499.35849056603774,198.52445613243827,13.099579974104275,13.099579974104275,197.16570637596587
498.7358490566038,198.5371209707262,13.1077814754969,13.1077814754969,197.01486789798392
498.11320754716985,197.8114665546724,12.86741847518182,12.86741847518182,197.3872648662225
497.49056603773585,197.98561674226457,13.186326876624861,13.186326876624857,197.10621821136408
496.8679245283019,198.59168183713481,13.094893220823264,13.094893220823266,196.69249762004478
496.2452830188679,198.61482661999312,13.235927267777758,13.235927267777758,197.39484048448708
495.62264150943395,198.37380237158445,13.013153943732055,13.013153943732055,197.80971334603927
495.0,198.1193504533707,12.89083324998033,12.89083324998033,197.56242202587623
494.37735849056605,197.7936223505092,13.4461835380023,13.4461835380023,197.67852535109202
493.7547169811321,197.48935209163002,13.38798854090113,13.38798854090113,198.16881326728608
493.13207547169816,197.48723103643673,12.951728480834934,12.951728480834937,197.12880450243583
492.50943396226415,197.45436223552773,13.513974584881518,13.513974584881518,198.29792762307156
491.8867924528302,197.28619405181757,13.484359975715074,13.484359975715071,198.3286153777158
491.2641509433962,198.52408140523684,11.98997672785394,11.989976727853943,198.96696724083313
490.64150943396226,197.67494856377658,13.21861475084358,13.21861475084358,197.94454108825533
490.0188679245283,198.03319162805937,12.850336356661176,12.850336356661181,198.42425857384828
489.39622641509436,198.10270370412533,12.916464206566548,12.916464206566543,198.1348560006525
488.7735849056604,197.05812984418006,13.429102283138205,13.429102283138205,198.30655796465635
488.1509433962264,196.58651305496946,13.260420507400998,13.260420507400994,197.89578789565502
487.52830188679246,196.89647907537477,12.845792552204077,12.845792552204077,198.90854986224016
486.90566037735846,197.17249035225902,13.305197426725524,13.305197426725526,198.61150726124166
486.2830188679245,197.05346196329964,13.424614783866714,13.424614783866717,198.3137315553583
485.66037735849056,197.4234071355614,13.553727928873787,13.553727928873787,198.64224792826354
485.0377358490566,196.79978709521697,13.715048246559641,13.715048246559641,199.1733364156682
484.41509433962267,197.46311026147194,13.641706936553106,13.64170693655311,199.18292383970024
483.7924528301887,196.75412567483676,13.497929717181574,13.497929717181574,198.7749107957136
483.1698113207547,196.56387970385566,13.548386097961346,13.548386097961346,198.267041833292
482.54716981132077,196.99878876711787,13.52861073206824,13.52861073206824,198.67379722326933
481.92452830188677,197.26782942191858,13.654715274905604,13.654715274905605,199.29694692109618
481.3018867924528,196.31519911761447,13.722505183566051,13.722505183566048,198.71782011341713
480.6792452830189,196.39214325188456,13.600811507875779,13.600811507875775,199.40461067203515
480.0566037735849,196.99474483208408,13.626002765803358,13.626002765803356,198.94670337720035
479.433962264151,196.28792315682168,13.844709175635606,13.8447091756356,199.77458580850714
478.81132075471703,196.22464136074197,13.35108136401819,13.35108136401819,199.39959097336794
478.188679245283,198.61658561978325,15.239666200007417,15.239666200007417,199.35056563927515
477.566037735849,195.83204046032859,13.360234853000923,13.360234853000923,198.71465601054575
476.9433962264151,195.574505024606,13.700086994822406,13.700086994822408,198.51030332772498
476.3207547169811,195.83703455146662,14.381272530823495,14.381272530823493,199.80381776454922
475.6981132075472,196.49639849719173,13.52499202108325,13.524992021083245,198.4236850237322
475.07547169811323,195.55232016664118,13.979072744429477,13.979072744429477,198.22560113629638
474.4528301886793,196.09437417214258,14.226240420690749,14.226240420690749,198.7955478978508
473.8301886792453,195.71883173996557,14.097950991150139,14.097950991150135,199.2318633939393
473.20754716981133,195.57069848075503,14.151700821737622,14.151700821737624,199.79023022221574
472.58490566037733,196.42790717657687,13.823562119507843,13.823562119507843,199.48507976108016
471.9622641509434,196.42724577190694,13.89458323632302,13.894583236323026,200.33676144096026
471.33962264150944,195.41279338263814,14.304864577499483,14.304864577499483,200.00050905643374
470.7169811320755,195.92135244182987,14.02080940351662,14.02080940351662,199.20534114514655
470.09433962264154,195.46065184954438,14.04019397639628,14.04019397639628,200.08864190329433
469.4716981132076,195.7505619855737,13.874591494929712,13.874591494929712,199.37006604718033
468.8490566037736,195.5513304688355,13.714132678294655,13.71413267829465,199.87404378164632
468.22641509433964,195.82596990859926,14.306414089749282,14.306414089749286,199.76116882265086
467.60377358490564,195.2616705355309,14.08415974326205,14.084159743262052,200.20145019276737
466.9811320754717,194.41974223842627,14.40805688370987,14.408056883709868,200.22269615286922
466.35849056603774,194.85283851181217,14.231070610104497,14.231070610104492,200.51020769521242
465.7358490566038,195.21043259092568,14.262687380250565,14.26268738025056,200.3698496085739
465.11320754716985,194.49853449326866,14.72422475641007,14.724224756410067,201.43391490758967
464.49056603773585,194.7623898920166,14.263464305719376,14.263464305719376,199.82215226420377
463.8679245283019,194.77179378768008,14.106895414828957,14.106895414828957,200.74570682615067
463.2452830188679,194.59896782702185,14.729065571058415,14.729065571058412,200.36482421835427
462.62264150943395,194.32903198886308,14.426596034677177,14.426596034677177,199.9247736739341
462.0,195.14475326782488,14.061833929486106,14.061833929486106,199.84316467215618
461.37735849056605,195.24177266152145,14.219042416016574,14.219042416016576,199.9404108625921
460.7547169811321,194.2962545446165,14.40610623545079,14.406106235450796,200.31489545010717
460.13207547169816,194.85496580482604,14.404870652436832,14.404870652436827,200.030056121323
459.50943396226415,193.8674718493503,14.463932956994958,14.463932956994952,200.13958289602144
458.8867924528302,191.75969848693964,15.597730420390507,15.597730420390507,203.10402321729836
458.2641509433962,191.2528434065627,15.384920526610049,15.384920526610044,204.06339485505427
457.64150943396226,190.79322570694714,15.384670412940538,15.384670412940544,204.02992275334796
457.0188679245283,191.2485963824334,15.435467493133942,15.435467493133942,204.04778893377116
456.39622641509436,190.59401265819932,15.510714124259339,15.510714124259344,204.20756534413488
455.7735849056604,190.37326546306556,15.755853728191747,15.755853728191747,203.94197499943857
455.15094339622647,190.48115888063225,15.951017796863368,15.951017796863368,203.47151111619812
454.52830188679246,189.45111383620184,15.969032483749428,15.969032483749428,203.66979861392585
453.90566037735846,189.62020257384782,15.668499531822421,15.668499531822421,204.3919096824338
453.2830188679245,190.1731065567199,15.848097260747759,15.848097260747764,203.95642062496623
452.66037735849056,191.02514534740502,16.224567493455332,16.224567493455332,204.2572905537192
452.0377358490566,190.11906043014685,15.627347961960625,15.627347961960629,204.0502430865071
451.41509433962267,189.27969165496486,15.886762146592755,15.886762146592755,204.53241912339593
450.7924528301887,190.11152189579084,15.829158924562751,15.829158924562751,204.6568619315388
450.1698113207547,189.86219812587518,15.83541725507056,15.83541725507056,204.6972609433083
449.54716981132077,189.70742922112132,15.81474647629953,15.814746476299533,204.12992142093563
448.92452830188677,189.7007003448006,15.78321537950464,15.78321537950464,204.36071587253826
448.3018867924528,189.80656475773077,15.928510415780357,15.928510415780352,204.44662496266164
447.6792452830189,189.81917338183075,16.03696362732357,16.03696362732357,204.66076537113213
447.0566037735849,189.05002873322928,16.16430835446379,16.16430835446379,204.27375316023682
446.433962264151,189.61556272006797,16.200598987534505,16.200598987534505,204.93196533545776
445.81132075471703,190.02394682280232,16.065633409945733,16.065633409945733,204.68188002144504
445.188679245283,189.4003087329454,15.864831783582698,15.864831783582702,205.37036894665053
444.5660377358491,188.75154120834372,15.846544300864124,15.84654430086413,205.470531966063
443.9433962264151,189.35296236663584,15.866787664647845,15.866787664647848,205.4010857880719
443.3207547169811,189.17584026234434,15.966589123248552,15.966589123248548,205.4154781584935
442.6981132075472,188.89693338095455,16.21557890199181,16.21557890199181,205.19908102397247
442.07547169811323,188.425531021054,16.32089830807621,16.320898308076217,204.82568290383614
441.4528301886793,188.07360059846772,16.204153056181422,16.204153056181426,205.1103763969534
440.8301886792453,188.44130247653524,16.011508060047895,16.01150806004789,205.50673392453018
440.20754716981133,188.8622042830755,16.494372104310024,16.49437210431002,205.4545517683696
439.58490566037733,188.5755583454111,16.607529325305567,16.607529325305567,205.66042634509037
438.9622641509434,188.14179107315402,16.217452106044025,16.217452106044025,205.56092462717703
438.33962264150944,188.45607785940396,16.401739771451897,16.401739771451897,205.63984928672667
437.7169811320755,189.01150147838592,16.127758304130595,16.127758304130595,205.3409122135928
437.09433962264154,188.9221828474499,16.33805155384061,16.338051553840614,205.9765571073429
436.4716981132076,189.05938555758752,16.262259090741424,16.262259090741424,206.17388917989717
435.8490566037736,189.24205095853458,16.543377166977205,16.543377166977205,205.50031039956815
435.22641509433964,188.7058919050762,16.656590487935333,16.656590487935336,205.69315117495287
434.60377358490564,188.39023201347504,16.36051247207489,16.36051247207489,205.20528220457584
433.9811320754717,188.7035560990491,16.525074407503375,16.52507440750338,205.99921303479
433.35849056603774,188.16117084169403,16.417167019120424,16.41716701912042,205.64926708959942
432.7358490566038,188.3788951123124,16.274126953279747,16.274126953279747,206.20751077931996
432.11320754716985,188.23995654455743,16.55821120473007,16.558211204730068,206.38706446168842
431.49056603773585,188.26800670345798,16.445329637544205,16.44532963754421,206.32722381696217
430.8679245283019,188.57638646401952,16.490010981340955,16.490010981340955,206.43642981399867
430.2452830188679,188.12547488831004,16.8956009012645,16.895600901264505,205.45575801691035
429.62264150943395,187.9121151693015,16.605777814145675,16.60577781414567,206.91780306082927
429.0,188.1590458915301,16.26393649126885,16.263936491268847,207.34503231487778
428.37735849056605,188.5943441856325,16.727968481772816,16.727968481772816,206.50004859795789
427.7547169811321,188.2907875569497,16.728518002750864,16.728518002750864,206.77529630422367
427.13207547169816,187.6419449790992,16.75793251464341,16.757932514643404,206.34120841251195
426.50943396226415,187.63310577477338,16.826369620289658,16.826369620289658,206.43200109598945
425.8867924528302,187.78771165741304,16.61131765979243,16.611317659792434,207.06344674677857
425.2641509433962,187.38595351985245,16.83015951380669,16.83015951380669,207.24261292745882
424.64150943396226,188.12189420462474,16.755363256697876,16.75536325669788,206.75643113946361
424.0188679245283,188.10807304850465,16.585320915019036,16.585320915019036,206.83228412424594
423.39622641509436,187.3781263365311,16.614469492406116,16.61446949240612,207.28984812118858
422.7735849056604,187.7514209080904,16.353886968608997,16.353886968608997,207.0625246841137
422.15094339622647,187.86933985197763,16.355956796603365,16.355956796603362,206.65117989211421
421.52830188679246,186.9747729558693,16.734576371806003,16.734576371806003,207.53440166538152
420.9056603773585,186.518531061099,16.929398567489162,16.929398567489162,207.9359626026341
420.2830188679245,187.39480893725082,16.90950183738566,16.909501837385655,207.26976731615056
419.66037735849056,186.9052945827268,16.824268261246008,16.824268261246008,207.64639072359566
419.0377358490566,186.7889172378632,16.59819426210163,16.59819426210163,207.80777161814729
418.41509433962267,186.75160364606194,16.91736952398585,16.91736952398585,207.53306129980356
417.7924528301887,187.42618685085637,16.85948453251572,16.859484532515722,207.8407284917304
417.1698113207547,187.61560386640977,16.81959589983601,16.81959589983601,207.21500098120165
416.54716981132077,187.02103207349623,16.837341160536802,16.8373411605368,207.64508909183178
415.92452830188677,187.13718990097541,17.021146093327346,17.021146093327342,207.58665288638866
415.3018867924528,187.2666396583348,16.916880049644124,16.916880049644124,208.10911456758197
414.6792452830189,186.63792984942606,16.95108471396233,16.95108471396233,207.49240365739823
414.0566037735849,185.9531479143437,17.107569348892994,17.107569348892987,207.83643369873903
413.433962264151,186.4275684636855,17.26142624997145,17.261426249971457,207.85861532475633
412.81132075471703,186.4489750426042,16.994546927637984,16.994546927637984,206.82661638743787
412.188679245283,187.01510600482035,16.997058775553427,16.99705877555343,207.7381097740085
411.5660377358491,186.00408767446515,17.113555132191152,17.11355513219115,208.3142309523226
410.9433962264151,186.0435480627127,17.12722581949225,17.127225819492242,207.8179944601594
410.3207547169811,185.6912332389446,17.215918113120868,17.215918113120868,208.23137581675482
409.6981132075472,185.41042551582672,17.09162909369118,17.091629093691186,208.20454799766105
409.07547169811323,185.68335123827697,17.069650218601886,17.069650218601886,208.28888293858935
408.4528301886793,186.1173583576865,17.152101641052493,17.152101641052493,208.3805749454892
407.8301886792453,185.80898186150714,17.246268809327123,17.246268809327123,208.01106836623885
407.20754716981133,186.12111564400175,17.24431798763933,17.244317987639324,208.46958978921373
406.58490566037733,186.23778732383462,17.373524130570516,17.373524130570512,208.6048561478361
405.9622641509434,186.2494190726789,17.30983813474268,17.30983813474268,208.91341601024763
405.33962264150944,185.41770275484959,17.846639275021374,17.846639275021378,209.44141114244377
404.7169811320755,185.5318437964187,17.33809225363421,17.338092253634212,208.97625589720306
404.09433962264154,185.4145938481502,17.44114047669986,17.44114047669986,208.27122821970858
403.47169811320754,186.06590235983884,17.473012209611905,17.47301220961191,208.6233202970656
402.8490566037736,185.71927821056033,17.392540083876113,17.392540083876113,209.07652545697994
402.22641509433964,185.39515779956187,17.423927479180765,17.42392747918077,209.616955286912
401.6037735849057,185.54674898922485,17.202964692138824,17.202964692138824,209.71439265199442
400.9811320754717,184.97953787285496,17.27868617448471,17.27868617448471,208.92052950885235
400.35849056603774,185.6392079259277,17.57077313206698,17.570773132066975,210.0398424221576
399.7358490566038,185.12302037030122,17.640387953203028,17.640387953203025,209.98373913402867
399.11320754716985,185.23957166271833,17.57586669067781,17.57586669067781,209.48144063027956
398.49056603773585,185.38527156000399,17.678922939423906,17.67892293942391,209.803479329842
397.8679245283019,185.07099699832457,17.503681145313355,17.503681145313355,208.80905003187905
397.24528301886795,185.4149699145491,17.739567738223286,17.739567738223286,210.06089791234555
396.62264150943395,185.24217042389944,17.796043025297372,17.79604302529737,209.35374569189412
396.0,184.94516925279956,17.386066962914327,17.38606696291433,209.43719055002848
395.37735849056605,184.5680340590546,17.478587594445465,17.478587594445465,209.97067089489812
394.7547169811321,185.94986786150793,17.775867753627885,17.775867753627885,209.32561221240312
394.1320754716981,185.20217483496222,17.737044383366424,17.737044383366424,209.89232587736842
393.50943396226415,185.30998385897567,17.553486576376642,17.55348657637664,210.42551794108127
392.8867924528302,184.71357751497376,17.519636271692246,17.519636271692246,209.8956520910169
392.26415094339626,184.51037818542534,17.66546655137099,17.665466551370987,209.82982149752306
391.64150943396226,184.48750448565113,17.77345200291604,17.77345200291605,210.3744646698724
391.0188679245283,184.18636368401147,17.585677460990357,17.585677460990354,210.30082867662554
390.39622641509436,183.95981695330784,18.04821756892643,18.048217568926432,210.2430189045488
389.7735849056604,184.5163975782059,17.970609977290277,17.970609977290273,209.97102049200268
389.1509433962264,184.79040678246272,17.93801698632441,17.93801698632441,210.20959155707328
388.52830188679246,184.70946626702514,17.66934684230049,17.669346842300495,210.0380943653457
387.9056603773585,183.757981741515,17.591702059303465,17.591702059303465,210.64536767724687
387.28301886792457,184.1877185500449,17.616173568252133,17.616173568252133,210.83528718302117
386.66037735849056,184.68880079201935,17.676130888451752,17.67613088845176,211.16445716340988
386.0377358490566,184.93444367374644,18.053086943493422,18.053086943493422,211.10759247999468
385.41509433962267,184.0733442196925,18.12317283334628,18.12317283334628,210.80221378451895
384.79245283018867,183.74222550819832,18.27710438008573,18.27710438008573,210.40797622478806
384.1698113207547,184.24314827514095,18.269235371012392,18.26923537101239,210.78433523355315
383.54716981132077,184.21974936327612,18.28466498025281,18.28466498025281,211.14206462436658
382.9245283018868,184.63380211767884,17.934596710471556,17.934596710471556,211.62854429716066
382.3018867924528,184.39059927445604,17.98923376701394,17.98923376701394,211.80141881676317
381.6792452830189,183.7510166758588,17.869504194533317,17.869504194533317,211.0905450953129
381.0566037735849,183.83029914450174,18.30011437236425,18.30011437236425,211.51215249589112
380.433962264151,184.541906069235,17.93230581197447,17.93230581197447,211.08354338385578
379.811320754717,183.82894854177434,18.382837519445506,18.3828375194455,211.00851725805362
379.188679245283,184.25597334054154,18.025196242378968,18.025196242378964,211.0265663541537
378.5660377358491,184.1741348905005,18.30367942937932,18.303679429379326,211.06620025574279
377.94339622641513,183.6776232496919,18.30705137240678,18.30705137240678,211.6180185726145
377.3207547169811,183.59864262149273,18.375533927882696,18.375533927882692,211.28194672871948
376.6981132075472,184.20174741810285,17.96637817667904,17.96637817667905,211.40933835838794
376.07547169811323,183.86497837124503,18.005503623576626,18.00550362357662,211.97944729874663
375.4528301886793,183.96207038634407,18.325944816083947,18.325944816083947,211.4527724659451
374.8301886792453,183.88828373094688,18.251423832849337,18.251423832849333,211.88022209425665
374.20754716981133,183.57295646791414,17.97896369579803,17.978963695798036,212.5102970451325
373.5849056603774,183.60894456537068,18.170052871802472,18.170052871802465,211.99069910126798
372.9622641509434,183.17119299708128,18.126465952623256,18.126465952623256,212.2994625843265
372.33962264150944,183.12165904297942,18.32903666420102,18.32903666420102,212.49366030952552
371.7169811320755,183.22762838613468,18.542367231872916,18.542367231872916,212.20584547469275
371.09433962264154,183.83935488740218,18.245588463594093,18.2455884635941,212.55659633542228
370.47169811320754,183.46533968815066,18.434982164661232,18.434982164661232,211.54630112417516
369.8490566037736,184.18161630100218,18.407417729201104,18.407417729201097,212.45248940143807
369.22641509433964,184.0678077241796,18.533868553667872,18.53386855366787,212.23851083756495
368.6037735849057,183.89748578445554,18.43268913221379,18.43268913221379,212.33970864729892
367.9811320754717,184.05793635302382,18.227344295991827,18.227344295991827,212.74408202780728
367.35849056603774,183.22044145205905,18.804474096648235,18.80447409664824,212.50418918010803
366.7358490566038,183.549049280253,18.259512487458757,18.25951248745876,213.42264305301515
366.11320754716985,182.94127329803882,18.470793546428556,18.470793546428563,212.69689848927277
365.49056603773585,183.10594271217917,18.534891979942255,18.534891979942255,212.83662623955584
364.8679245283019,183.25131107319962,18.531331640214752,18.531331640214752,213.04059886969674
364.24528301886795,182.4551249215248,18.72354178983996,18.723541789839967,213.63746559557563
363.62264150943395,182.9721694978864,18.703509258039354,18.703509258039354,213.55864137427795
363.0,182.79130926806423,18.768700906832912,18.768700906832915,213.4905015510847
362.37735849056605,183.36080216911068,18.590098953667276,18.590098953667272,213.4953120482054
361.7547169811321,182.60966866906824,18.784438930880505,18.7844389308805,213.060323499653
361.1320754716981,182.18274600805137,18.43843819263031,18.438438192630315,213.6808600181414
360.50943396226415,182.95005203577696,18.684687284340924,18.684687284340924,213.4688561974302
359.8867924528302,182.1839960769487,18.37826309024977,18.37826309024977,213.07869217229606
359.26415094339626,182.5646513808042,18.998492144521975,18.998492144521972,213.5364030214162
358.64150943396226,182.63407744659324,18.48355141053138,18.483551410531383,213.3265256829533
358.0188679245283,182.5702779914832,18.291271884953325,18.291271884953325,213.52294120210783
357.39622641509436,182.73231509990504,18.955277400743945,18.955277400743945,214.90533781131836
356.7735849056604,181.90634386674702,18.54136327055359,18.541363270553585,213.7849580002388
356.1509433962264,183.16847472505023,17.835088468921803,17.835088468921807,214.58610021438366
355.52830188679246,182.8460256880212,18.898670695525468,18.898670695525468,213.86074034586483
354.9056603773585,181.8673653931611,18.892366044796617,18.89236604479662,214.15717474022117
354.28301886792457,182.15394133597218,18.745049744458917,18.745049744458917,214.68256688113024
353.66037735849056,182.56275058592465,18.667709625687294,18.667709625687298,213.77698630689474
353.0377358490566,181.98846532937748,18.59574015647852,18.59574015647852,214.21948091333363
352.41509433962267,182.4967951823293,18.66482935684464,18.664829356844635,214.3779339417817
351.79245283018867,182.42800393431529,18.92515008091979,18.92515008091979,213.96489770062902
351.1698113207547,182.39309205250353,19.075456567140872,19.075456567140872,214.3105966651016
350.54716981132077,182.3817912224692,18.784608191300403,18.784608191300403,214.77388472427964
349.9245283018868,182.15536233186882,18.63232831263527,18.63232831263527,214.35902216488597
349.3018867924528,181.77502837545205,19.20328359686919,19.203283596869188,214.86322978076754
348.6792452830189,182.41767867093358,18.987512946198244,18.987512946198244,214.9856857533012
348.0566037735849,182.77791335112573,19.026358336375953,19.026358336375957,215.63154770915477
347.433962264151,181.89707138181544,19.018147757290798,19.01814775729081,215.99137080367709
346.811320754717,182.32254716994433,18.80867492926483,18.80867492926483,215.1598565985493
346.188679245283,181.55784761724843,19.015720907757327,19.015720907757327,214.87980937613688
345.5660377358491,182.5067517617242,19.270605969035376,19.270605969035373,215.35358476902076
344.94339622641513,181.847567419071,19.251706653921637,19.251706653921637,215.19269837135354
344.3207547169811,182.16196247799243,18.949459833297595,18.949459833297595,215.3675328034837
343.6981132075472,181.97590133354885,19.467585667612777,19.467585667612774,215.59304572005732
343.07547169811323,182.2535485299299,19.137734666111996,19.137734666111992,215.2562229017
342.4528301886793,182.04339034067866,18.994720809726836,18.994720809726836,215.34968141864059
341.8301886792453,181.74816533057697,19.60134865063794,19.60134865063794,215.15074885320502
341.20754716981133,182.076006935699,18.99827314873729,18.99827314873729,215.0230374145493
340.5849056603774,181.34235102701808,19.552334034757532,19.552334034757536,215.8722695733488
339.9622641509434,181.62231837071803,19.17591379844401,19.17591379844401,216.6176926679912
339.33962264150944,181.03333473534138,19.29307401414845,19.293074014148452,215.55173824156728
338.7169811320755,181.2182100376129,19.279999233210265,19.27999923321026,215.93176790941624
338.09433962264154,181.74274558612032,18.901719706917472,18.90171970691747,215.79787828509276
337.47169811320754,181.20553576793992,18.931741811247846,18.931741811247846,215.98356199340697
336.8490566037736,181.0898625133708,18.99929516579244,18.99929516579244,216.14666940739448
336.22641509433964,181.25228805660385,19.452371155829475,19.45237115582948,215.86130198441853
335.6037735849057,181.75679439150116,19.169868863258095,19.1698688632581,216.06565513260676
334.9811320754717,181.0470399527111,19.724130541303637,19.724130541303637,216.4755719622549
334.35849056603774,180.65706225526594,19.21066572400236,19.21066572400236,216.1024330744927
333.7358490566038,180.43553973690607,19.420043932032566,19.42004393203257,215.92727752939874
333.11320754716985,181.37243922458455,19.296640913172016,19.296640913172016,215.7371036527007
332.49056603773585,181.11635183041048,19.30010509164169,19.300105091641694,216.50101079439975
331.8679245283019,181.31752106284546,19.194126782339207,19.194126782339207,216.06426958140767
331.24528301886795,180.69094541603332,19.51473940409125,19.51473940409125,217.04683236599632
330.622641509434,181.63875293527656,19.22198414508214,19.22198414508214,216.68016112052769
330.0,181.05966397359654,19.70486435794244,19.704864357942437,216.78985204480995
329.37735849056605,181.03300697239098,19.566713779437013,19.566713779437013,216.9441763312347
328.7547169811321,180.92580647748144,19.71839843153404,19.718398431534045,216.72410653623123
328.1320754716981,180.10033420624688,19.520896412400326,19.52089641240032,216.31378431247782
327.50943396226415,180.34527617855403,19.44640632560181,19.446406325601817,216.73528854090077
326.8867924528302,179.67466298588946,19.518845321370744,19.518845321370744,216.51030829458915
326.26415094339626,180.1577544526923,19.59324881647248,19.593248816472478,216.6867269460164
325.64150943396226,180.69535565175377,19.535292610749742,19.535292610749742,216.95300096996408
325.0188679245283,180.64393370320298,19.456728039992665,19.45672803999267,217.01276102611004
324.39622641509436,180.50312179597816,19.51120076502439,19.511200765024387,216.98624042691438
323.7735849056604,180.31075746418006,19.500481310996307,19.500481310996307,216.91273242370877
323.1509433962264,179.7793645737699,19.74877170094017,19.748771700940164,217.35729832068657
322.52830188679246,179.52722334323914,19.644877384859168,19.644877384859164,217.18100823508854
321.9056603773585,179.37638476930832,19.648044362954188,19.64804436295419,216.6335148283374
321.28301886792457,179.85051527166263,19.372715781497735,19.37271578149773,216.9737790769111
320.66037735849056,179.69554531358193,19.358071930556626,19.358071930556626,216.96936639851273
320.0377358490566,180.3249221086792,19.9282711184553,19.9282711184553,217.02385856489704
319.41509433962267,179.37455795715823,19.844004458579548,19.844004458579548,217.30318364290707
318.7924528301887,180.40509641929387,19.509376947390848,19.50937694739085,217.19620419764615
318.1698113207547,179.83809681839415,19.84975501937835,19.84975501937835,217.8243689370678
317.54716981132077,180.3475219428021,19.523897933961695,19.523897933961695,216.95644811154932
316.9245283018868,179.40819775725274,19.553285379004326,19.553285379004326,217.49774833600583
316.3018867924528,179.9421478990466,19.518558353150784,19.518558353150784,217.30003196023065
315.6792452830189,179.92782563820984,20.10059176490728,20.100591764907268,217.2426283525892
315.0566037735849,179.76214027408977,19.93015100113995,19.93015100113995,217.61419309700887
314.433962264151,179.99810662083155,18.785765570214277,18.78576557021427,217.6459245695407
313.811320754717,179.63419574418262,19.480025084004318,19.480025084004318,217.46339693902598
313.188679245283,179.53746395696882,20.287559949985383,20.287559949985383,217.8288732715719
312.5660377358491,179.62471599722502,20.141576569754275,20.141576569754278,217.58544952822174
311.94339622641513,179.08461176462905,20.442829751779797,20.442829751779797,217.97397975425963
311.3207547169811,179.00134566376886,19.913737896352718,19.913737896352718,218.46038766082566
310.6981132075472,179.40906207638162,19.904085994579567,19.904085994579567,218.22435377967017
310.07547169811323,179.30391836141746,19.80423986360562,19.804239863605623,217.9187679428262
309.4528301886793,179.56304988558495,20.008321831754664,20.008321831754664,218.6044686930991
308.8301886792453,179.58465269859713,19.79686151478509,19.79686151478509,217.73549927381308
308.20754716981133,180.16950925082767,19.77404298193728,19.77404298193729,217.8593793877135
307.5849056603774,178.8799991290494,19.619331744597318,19.619331744597318,218.40656307212018
306.9622641509434,179.82668489059677,19.73425631898736,19.73425631898736,217.0833376487921
306.33962264150944,179.8981917522468,19.948044988665902,19.94804498866591,218.36897204604065
305.7169811320755,179.6259186937108,19.937859243048393,19.937859243048393,218.6348023132171
305.09433962264154,180.40725747506727,19.832514088856495,19.832514088856495,218.37665061801292
304.47169811320754,180.20128734477206,20.08468331031379,20.084683310313785,218.65865919602084
303.8490566037736,180.0550062531924,20.033596755079103,20.0335967550791,218.4843076514693
303.22641509433964,179.5118281999149,19.5946269178915,19.5946269178915,218.86656053186593
302.6037735849057,179.2666552363268,19.8406840379785,19.840684037978498,218.7806735495149
301.9811320754717,180.02330579299047,19.73139760978846,19.73139760978846,218.21460789291953
301.35849056603774,179.09484534088242,19.998818062995515,19.998818062995515,218.49507256270223
300.7358490566038,179.24458529533965,19.981355079735202,19.981355079735202,218.07873905477433
300.11320754716985,179.38436600481586,19.82733948082329,19.827339480823294,217.97556459255853
299.49056603773585,179.16157785994068,19.806351051159776,19.806351051159773,218.26266062027898
298.8679245283019,179.65877886351396,19.987360735013294,19.987360735013286,218.87078705232716
298.24528301886795,179.37791984237361,19.870006151662288,19.870006151662285,219.04316557144546
297.622641509434,179.63390549729255,19.902069914194556,19.902069914194556,218.6118064252161
297.0,179.9474947177543,19.693146192809024,19.693146192809024,219.34294757673268
296.37735849056605,179.24272787094256,19.87839106263793,19.87839106263793,218.86100910309804
295.7547169811321,179.25532178121418,19.981881472212468,19.981881472212464,219.44626668673408
295.1320754716981,178.983002695363,19.96164438525994,19.96164438525994,218.86987948480825
294.50943396226415,179.78494693020687,20.307399425349473,20.307399425349477,218.61993798901258
293.8867924528302,179.33753297290076,19.969369800256448,19.969369800256448,218.83784229672992
293.26415094339626,178.64962755008978,20.0804926839878,20.080492683987803,219.30959105313147
292.64150943396226,179.6646526691959,19.868831481932947,19.868831481932936,219.25703233080063
292.0188679245283,179.53274615613742,19.8632282199318,19.8632282199318,218.7018591510096
291.39622641509436,179.25236333545624,19.7520323687156,19.7520323687156,219.44810491041162
290.7735849056604,179.82205147520537,19.573885049251956,19.573885049251956,219.11386994396398
290.1509433962264,178.97873941437052,19.533060510084155,19.53306051008416,219.59528710529503
289.52830188679246,179.54209905212633,19.817029231429608,19.81702923142961,219.84506668130902
288.9056603773585,179.78598214635937,19.821484524068328,19.821484524068328,219.92337061669377
288.28301886792457,179.0935589840089,19.71598180083245,19.71598180083245,219.63059156541357
287.66037735849056,180.18348484529952,19.9048556569409,19.9048556569409,219.1885254854517
287.0377358490566,179.63814337945908,20.178878765849856,20.17887876584986,220.41122230544525
286.41509433962267,179.4433069740498,19.767602426176808,19.767602426176804,219.66464158066483
285.7924528301887,180.1379196401426,20.19164529044583,20.191645290445823,219.5517113073339
285.1698113207547,179.2487336751038,20.2460475694217,20.246047569421695,218.56863278820424
284.54716981132077,179.84957991215484,19.992286958059413,19.992286958059413,219.26951747633828
283.9245283018868,179.8516415808146,20.31382242677679,20.313822426776788,219.71690996979228
283.3018867924528,179.935494885197,20.048019842267298,20.048019842267298,219.35974256328976
282.6792452830189,179.43652540296188,19.733304860042935,19.733304860042935,220.16226550139766
282.0566037735849,180.23700996497038,19.831908706337682,19.831908706337675,219.6442662360313
281.433962264151,179.9121418745013,20.080847382778217,20.080847382778224,220.6759793693131
280.811320754717,179.75388767164335,19.535606295102447,19.535606295102454,219.75585576198438
280.188679245283,179.2404605899008,20.09176060776371,20.09176060776371,219.7900940424905
279.5660377358491,179.7011204926982,20.13933264416609,20.139332644166085,218.93436763645528
278.94339622641513,179.22149308464316,20.247899265703854,20.247899265703847,219.41557203787545
278.3207547169811,179.63122823417905,19.957384589422237,19.957384589422237,219.85278477412177
277.6981132075472,179.603383069363,20.100398750757243,20.10039875075724,219.29784188620027
277.07547169811323,179.78332180658063,19.619321892478105,19.619321892478105,219.86395540117678
276.4528301886793,178.74902286701962,19.995926258003507,19.995926258003507,218.48947605250783
275.8301886792453,180.38068968800619,19.73438590226282,19.73438590226282,219.56062282913996
275.20754716981133,179.81692428834754,19.83540747495726,19.83540747495726,219.4075122278935
274.5849056603774,179.39213484896214,19.852888910223562,19.852888910223562,219.5898393851719
273.96226415094344,179.40525485753165,19.760184050546624,19.760184050546627,218.84497063819995
273.33962264150944,179.73727059887926,19.72221642266272,19.72221642266272,219.7968188961728
272.7169811320755,179.952213091996,19.872256269075915,19.872256269075915,219.66822818916495
272.09433962264154,179.41770320491236,19.81652007991839,19.81652007991839,219.663538204745
271.47169811320754,180.05801682839748,19.29907351610868,19.29907351610867,220.91911960069302
270.8490566037736,180.41512236344437,19.999289516524136,19.999289516524136,219.60257082133546
270.22641509433964,179.7896812421357,19.67869712442355,19.67869712442355,219.86165954711814
269.6037735849057,179.75954097868762,19.79701115733471,19.797011157334705,219.7842340423354
268.9811320754717,179.95829351923865,19.918110773900235,19.91811077390024,219.63841670300843
268.35849056603774,179.6935872814461,19.69823404039837,19.698234040398372,219.50004882026232
267.7358490566038,179.38943869654997,19.696381359506503,19.696381359506503,219.75799333037043
267.11320754716985,179.39383039366442,19.653918060701972,19.653918060701976,219.93992738713294
266.49056603773585,179.54840608114674,19.563505743233044,19.563505743233044,220.03905177178544
265.8679245283019,180.14281788958286,19.819942298783516,19.81994229878352,219.69515242578242
265.24528301886795,179.46240058201528,19.463242933579785,19.46324293357979,220.29599705616806
264.622641509434,180.10791679373915,19.791274586006633,19.79127458600664,220.24158012236416
264.0,180.23499918888882,19.84965822844226,19.84965822844226,219.4519064908261
263.37735849056605,180.07482055090526,19.59853654594897,19.59853654594897,220.53197569931135
262.7547169811321,179.64770878032834,19.66800228338912,19.66800228338912,219.66663286079307
262.13207547169816,179.49665929678503,19.567319107803115,19.567319107803115,219.7937552937648
261.50943396226415,179.94932791251597,19.82409329779336,19.824093297793365,220.32602335563197
260.8867924528302,180.45837876660323,19.639249900336754,19.639249900336754,219.74404291457435
260.26415094339626,180.2609184491462,19.92674109319484,19.926741093194842,220.41180729746378
259.64150943396226,180.95308218122736,19.476768793136827,19.476768793136827,219.57082389553648
259.0188679245283,180.6042759293897,19.361244000135347,19.36124400013534,220.0224527210513
258.39622641509436,179.89409559007916,19.70365631605997,19.703656316059973,219.5464941200064
257.7735849056604,180.2907194002345,19.64120712639459,19.641207126394598,219.82245214510326
257.1509433962264,180.47989118980607,19.740251500262953,19.740251500262957,219.87058293495372
256.52830188679246,179.958534390556,20.116100381207087,20.116100381207087,218.97687771591765
255.90566037735852,179.8806218198997,19.841643005196335,19.84164300519633,219.17874958870894
255.28301886792457,180.35065707670512,19.66805911232649,19.66805911232649,219.3049512267536
254.66037735849056,180.35642736534047,19.688059260396592,19.68805926039659,219.58981286619624
254.03773584905662,179.8405092661592,19.63760473547358,19.637604735473584,219.2658726796268
253.41509433962267,180.53330352878277,19.417032573692417,19.417032573692417,218.81985668204237
252.79245283018872,180.09869879287038,19.462105917852334,19.462105917852327,219.11644394154555
252.16981132075472,179.9197553895992,20.16449492873414,20.16449492873414,219.6440487489068
251.54716981132077,179.95486412708416,19.500457277025077,19.50045727702508,218.87790273428718
250.92452830188682,181.27428154731518,17.765161581896162,17.765161581896162,219.87158357822184
250.30188679245288,180.520813253442,19.76883211464212,19.76883211464212,218.86245458640755
249.67924528301887,180.20704128173614,19.750902372065234,19.75090237206524,219.21646014510245
249.05660377358492,180.16615733238876,19.4577745746289,19.457774574628893,219.47974584289116
248.43396226415098,180.6093439270106,19.36320729213282,19.36320729213282,219.50585759615544
247.81132075471697,181.91931517711976,18.25125123648342,18.25125123648342,220.03031403608674
247.18867924528303,180.47781036070816,19.592257973998382,19.592257973998382,219.12479235197077
246.56603773584908,180.2912935848957,19.45111094189894,19.45111094189894,219.11939784365933
245.94339622641513,180.5854433670229,19.638073930682438,19.638073930682438,218.81168743543606
245.32075471698113,181.0396343742963,19.644927779869484,19.644927779869477,219.02324831424133
244.69811320754718,181.00043878314415,19.259698581904516,19.259698581904523,218.7219814409615
244.07547169811323,180.99401704170185,19.406752709883285,19.406752709883282,219.41283978729842
243.4528301886793,181.12437455523624,19.268981125109576,19.268981125109576,219.82995432492356
242.83018867924528,180.92359195283646,19.061705989409393,19.061705989409397,219.4337313531827
242.20754716981133,181.05896782753746,18.990962109247352,18.990962109247352,219.2923432262595
241.5849056603774,181.3789230980826,19.104250609765536,19.104250609765536,219.42997492404666
240.96226415094344,181.24472503985697,19.35920522528853,19.359205225288527,219.41278662171197
240.33962264150944,180.93896892108563,19.30190105925251,19.30190105925251,219.0355462870475
239.7169811320755,180.70973755985327,19.15359253952422,19.15359253952422,219.84533819419596
239.09433962264154,180.74883945833486,19.172486273768904,19.172486273768904,218.81687048611187
238.47169811320754,172.5786133698661,19.8825600527144,19.8825600527144,212.2182849375201
237.8490566037736,172.22002591913065,20.444166562415354,20.444166562415354,212.46513010514965
237.22641509433964,172.1755781371571,20.699306764437743,20.699306764437743,212.80605829385425
236.6037735849057,170.0869414776633,20.823767453766003,20.823767453766006,210.8417741739343
235.9811320754717,170.02272136048154,20.83565559656543,20.835655596565427,210.05964599747645
235.35849056603774,169.6765036804966,21.040280577654254,21.040280577654258,212.88363812272272
234.7358490566038,170.0004945878886,20.624598790962786,20.624598790962786,210.8486657319119
234.11320754716985,171.22996228915812,19.46534310063766,19.465343100637657,210.8456082721832
233.49056603773585,170.11126219822503,20.663767802392485,20.66376780239249,210.54596036193402
232.8679245283019,170.55521080949805,20.758409384644544,20.758409384644544,210.65001078562173
232.24528301886795,170.01692380872421,20.538120411355038,20.538120411355035,210.50566020703786
231.622641509434,170.74568601139217,20.423745021577478,20.423745021577478,211.6716392307101
231.0,170.10535286918505,20.378720504047095,20.378720504047095,210.456584057586
230.37735849056605,170.33038635145328,20.252612122849083,20.252612122849083,210.8705293997666
229.7547169811321,170.4802144445108,20.332797156188683,20.332797156188683,210.64871690628445
229.13207547169816,170.71509663095702,20.59227549506707,20.59227549506707,210.33763047203286
228.50943396226415,169.75535850671068,20.74912113590152,20.74912113590152,210.63246392371585
227.8867924528302,169.95004464199843,20.44765061293004,20.44765061293004,210.57136510885468
227.26415094339626,171.76548736499083,20.336945299066134,20.33694529906613,209.6357346349665
226.64150943396226,170.61373001283715,20.337612105808173,20.337612105808166,210.01770205289023
226.0188679245283,170.32057906301972,20.69499665190274,20.69499665190274,210.27708504711717
225.39622641509436,170.97366933216261,20.72292321546974,20.72292321546974,209.99299613229306
224.7735849056604,171.0062431105667,20.594937408457067,20.594937408457064,210.33171472995076
224.1509433962264,172.22025400359604,19.88145457349165,19.881454573491656,207.60381473897758
223.52830188679246,172.53978888322865,19.655641814248913,19.655641814248916,207.95167760268754
222.90566037735852,172.51201341958816,19.81094197622387,19.810941976223873,207.5990006883472
222.28301886792457,172.92776361451223,19.937018718097097,19.9370187180971,206.96688421171174
221.66037735849056,172.84741695787156,20.150092817207145,20.150092817207145,207.0247748951158
221.03773584905662,172.7122919130461,19.841889565221685,19.84188956522169,207.4114754197542
220.41509433962267,172.32964194451617,19.83983696888846,19.839836968888452,207.13034936724446
219.79245283018872,171.8272566989557,19.736046901291505,19.736046901291505,207.7021606467334
219.16981132075472,172.04838310802026,20.33307276702133,20.33307276702132,207.8183881490832
218.54716981132077,172.65971477968347,19.97759990661468,19.97759990661468,206.10095568971948
217.92452830188682,172.30689151315087,20.164949225907552,20.164949225907552,206.64597894621747
217.30188679245288,172.56739920980658,19.899716471452333,19.899716471452333,207.20503279826713
216.67924528301887,172.70194766842647,19.945715598203595,19.9457155982036,207.06916992051228
216.05660377358492,172.48608140912313,19.72492630809025,19.72492630809025,207.44674730242082
215.43396226415098,172.67881806406416,20.32781682731141,20.32781682731141,206.86890907184682
214.81132075471697,173.7356369308143,19.695435815238124,19.695435815238124,206.02375552832973
214.18867924528303,173.35427459649256,19.612870523309486,19.612870523309482,206.8588473711972
213.56603773584908,173.15637616149817,19.808201692451355,19.808201692451355,206.65034709247573
212.94339622641513,173.1201469085095,19.87523434240877,19.87523434240877,205.1889352197388
212.32075471698113,173.02800155190812,19.5824584713508,19.5824584713508,206.1018920078282
211.69811320754718,173.02835642585381,19.669242543175823,19.669242543175823,205.70942721690298
211.07547169811323,173.1406093043496,19.736829327984015,19.736829327984015,206.11271758284744
210.4528301886793,173.563658309765,19.79577692400177,19.79577692400177,205.94912586716754
209.83018867924528,174.529540112951,20.212619392319237,20.212619392319237,206.76691917003916
209.20754716981133,174.22226138781284,19.73338782945474,19.733387829454742,205.66521643751074
208.5849056603774,173.63112496509893,19.823841300053584,19.823841300053584,206.4467879799838
207.96226415094344,174.60126051266855,19.70445213198593,19.70445213198593,205.0694640249656
207.33962264150944,174.40509854517745,19.02502355629371,19.025023556293707,205.08533920443801
206.7169811320755,173.96978020954063,19.94144172855042,19.94144172855042,205.88266322241032
206.09433962264154,173.81790574182864,19.403447142468192,19.403447142468185,205.28081813563062
205.4716981132076,174.0425483184996,19.471449683946343,19.47144968394635,205.77751909667205
204.8490566037736,174.52730749892902,19.696517749418447,19.69651774941845,205.15822472115164
204.22641509433964,173.92159746494545,19.400639354266804,19.4006393542668,205.51511228148607
203.6037735849057,174.41672371714668,19.410997201303694,19.41099720130369,204.6571315946726
202.9811320754717,173.67864338792901,19.600737148143647,19.60073714814364,204.55322292319792
202.35849056603774,173.734414356478,19.521553546783743,19.521553546783743,204.5560125706122
201.7358490566038,174.6510432813123,19.58962631746756,19.58962631746756,204.29338638267382
201.11320754716985,174.49859330911542,19.66879519681434,19.66879519681434,204.43838245234673
200.49056603773585,175.00270658304586,19.279163090037294,19.279163090037294,203.68555529149714
199.8679245283019,175.3248087979928,19.323683228147384,19.323683228147377,203.9725249359462
199.24528301886795,175.4822941701449,19.20247712340714,19.202477123407142,204.3016253776395
198.622641509434,175.49693751953677,19.589022250256633,19.589022250256633,204.26292087931716
198.0,175.15990760620295,19.1188132834954,19.118813283495395,203.67163074518996
197.37735849056605,175.36689500102392,19.37941435737458,19.37941435737458,203.48409882335056
196.7547169811321,174.7692995645627,19.2665182602191,19.2665182602191,203.21016507952973
196.13207547169816,175.72342495807092,19.645512665716776,19.645512665716776,203.23602661035252
195.50943396226415,175.59962335932346,19.581550388549342,19.581550388549335,203.78952119578622
194.8867924528302,175.84319088358882,19.129277442364764,19.129277442364767,203.18202996329958
194.26415094339626,175.91142700496087,19.008626047689766,19.00862604768977,203.28631550933036
193.6415094339623,176.59172716539945,19.03930925599274,19.03930925599274,203.58747099174045
193.0188679245283,175.4914841545943,18.85876167827511,18.85876167827511,203.36744728030848
192.39622641509436,176.2798828859917,19.293216167147357,19.293216167147357,203.29221435817053
191.7735849056604,176.30132031709923,19.147787112520636,19.147787112520632,202.50651975164504
191.1509433962264,176.43455902126453,18.855659186744358,18.855659186744358,202.85920063149143
190.52830188679246,176.07777146570956,18.90643898558545,18.90643898558545,202.17399198034113
189.90566037735852,176.05938168792008,19.057394280322946,19.057394280322946,202.54089894801447
189.28301886792457,176.1956260395872,19.169343176644766,19.16934317664476,202.3654413520082
188.66037735849056,176.21603512559562,19.027914239183374,19.027914239183378,202.05650536839937
188.03773584905662,176.14636581333374,18.97663714864581,18.97663714864581,201.97885737495366
187.41509433962267,176.13877767262403,18.969574219124688,18.969574219124684,201.57908073257354
186.79245283018872,177.05002674356066,18.92571549479643,18.925715494796428,202.04892248389191
186.16981132075472,176.88463522011702,19.10010403555511,19.100104035555113,202.3225537918204
185.54716981132077,176.7579005491478,18.662648390834327,18.66264839083432,201.92982518927516
184.92452830188682,176.64947704946468,18.791933919302654,18.791933919302654,201.98791146038045
184.30188679245288,177.24791897166952,18.679148541908322,18.67914854190832,201.9176230185122
183.67924528301887,176.80425940992043,18.750259459193213,18.750259459193213,201.9475436317883
183.05660377358492,177.33937999491752,18.603871744310496,18.603871744310492,201.70620224712556
182.43396226415098,176.6394809669347,18.82796651111672,18.82796651111672,201.61954310450747
181.81132075471703,177.64078276928552,18.5835791826241,18.5835791826241,200.74962246811157
181.18867924528303,177.4217486501442,18.578980655823464,18.578980655823464,201.4803545040389
180.56603773584908,177.774511463979,18.61452355552669,18.61452355552669,201.11671208785046
179.94339622641513,177.84380512172783,18.601709984517196,18.6017099845172,200.32441159236893
179.32075471698113,177.26908408263134,18.752243379906762,18.75224337990677,200.61387184074061
178.69811320754718,177.6277339792085,18.712635393060346,18.71263539306035,200.72128418760337
178.07547169811323,177.80568631287008,18.268044076848035,18.268044076848035,200.52085204136466
177.4528301886793,177.39018907854268,18.627926714276978,18.62792671427698,200.1063205490965
176.83018867924528,177.48462438649824,18.60891447904738,18.608914479047385,199.5239694389766
176.20754716981133,177.548928805855,18.84009563032671,18.84009563032671,199.7949321034404
175.5849056603774,178.21872446010713,18.608950204628254,18.608950204628258,199.79352531935055
174.96226415094344,178.05820359416356,18.850024424928883,18.85002442492889,199.92885263507944
174.33962264150944,177.48422299349437,18.823011566107763,18.823011566107763,199.87073184887285
173.7169811320755,178.48188283751722,18.405028892847056,18.405028892847056,198.94752427745027
173.09433962264154,178.1091255823129,18.452909966957495,18.452909966957495,200.12062222210082
172.4716981132076,178.2697070530365,18.546969193693158,18.546969193693155,199.45032263383737
171.8490566037736,178.03104993601897,18.259621114674268,18.259621114674268,199.5234605806836
171.22641509433964,178.16687489198893,18.634952333026288,18.634952333026288,198.63810378184436
170.6037735849057,178.6552083209974,18.809929065586136,18.809929065586132,199.07137395787913
169.9811320754717,178.23825324654592,18.52941412032023,18.529414120320222,198.3055327407385
169.35849056603774,179.10009476985033,18.31606222222399,18.31606222222399,198.61587113695504
168.7358490566038,178.8565024448718,18.198217645433516,18.198217645433513,198.5804700829153
168.11320754716985,178.82647770011638,18.533418672182318,18.533418672182318,199.11926338908884
167.49056603773585,179.01224802308073,18.29666039548698,18.296660395486974,198.2502569216313
166.8679245283019,178.53608529104778,18.12178432959934,18.121784329599343,197.68779258672654
166.24528301886795,178.4294246079448,18.643738296230538,18.643738296230538,197.2688642897189
165.622641509434,178.51710609426348,18.250697426093975,18.250697426093975,198.54691775389253
165.0,179.01913236031436,18.379196715481758,18.379196715481758,197.3021914094376
164.37735849056605,179.15451199788217,18.26588284959397,18.265882849593975,197.38037609166207
163.7547169811321,179.3062332157574,18.03554146676207,18.035541466762066,198.0733644142884
163.13207547169816,179.6694200858536,18.19986438924879,18.199864389248795,197.4138721228123
162.50943396226415,179.34518776327255,18.411156029620837,18.411156029620837,197.1015904191106
161.8867924528302,179.5857896703502,18.274661364831665,18.274661364831665,197.44681123787745
161.26415094339626,179.80832953377555,18.12857220358969,18.12857220358969,197.61560012811864
160.6415094339623,180.32727256565784,18.01084080328716,18.01084080328716,197.78505785557135
160.0188679245283,179.89163985419094,18.14916990651328,18.149169906513276,196.8794269476775
159.39622641509436,179.5703241014322,18.034198460671934,18.034198460671934,196.55774092226903
158.7735849056604,180.25934391614942,18.03393887844088,18.033938878440882,197.13656912420012
158.1509433962264,179.40831763905354,18.01236543993637,18.01236543993637,196.34002050869472
157.52830188679246,180.5232417144104,18.040799911777427,18.040799911777427,196.57041257616567
156.90566037735852,180.05376685784032,17.981746679658098,17.981746679658098,196.85663150626573
156.28301886792457,180.51423092329273,17.97718307488659,17.977183074886593,196.49712957008794
155.66037735849056,180.24831342677052,18.128760857763655,18.128760857763663,195.704379123844
155.03773584905662,180.86650412918567,17.901745719929885,17.901745719929885,195.8177441987891
154.41509433962267,181.09233953662576,17.891127111734715,17.891127111734704,196.26911707135537
153.79245283018872,181.3821354208304,17.534744253279147,17.53474425327915,196.1749911428743
153.16981132075472,180.79868020507922,18.16680859992732,18.16680859992732,195.945446763889
152.54716981132077,180.3708672814783,17.789816760138887,17.789816760138887,196.48627979190954
151.92452830188682,181.06345693819708,17.787154829413964,17.78715482941396,196.15391937360295
151.30188679245288,181.08130774622398,18.000461295818628,18.000461295818624,196.10313962108407
150.67924528301887,181.44397551795245,17.732641345821506,17.732641345821502,196.05439128578385
150.05660377358492,181.53534741981838,17.333376667168377,17.333376667168373,195.5706901783054
149.43396226415098,181.41663871693626,17.614254981291364,17.614254981291364,194.94796945924415
148.81132075471703,182.6919968893036,17.383368850219007,17.383368850219007,195.10506515770058
148.18867924528303,181.77476579191082,17.548709811903645,17.548709811903645,194.980488996501
147.56603773584902,181.98125607579288,17.634432630117587,17.634432630117587,195.20402592759405
146.94339622641508,182.13765298067443,17.349279512141248,17.349279512141255,194.6066591739267
146.32075471698113,182.11067477631718,17.392625774884625,17.392625774884625,194.62276692973046
145.69811320754718,181.827369094193,17.37635190043028,17.376351900430276,194.6409933959539
145.07547169811323,181.85211774128365,17.343842446964874,17.343842446964874,194.36917077594433
144.4528301886793,181.8953386739098,17.583602492277304,17.5836024922773,193.66363971411957
143.83018867924534,182.10020341640544,17.29726485898074,17.29726485898074,193.72516479258047
143.2075471698114,182.3741731662858,17.528604910530014,17.528604910530014,193.0613340349516
142.58490566037733,182.13227172658958,17.167662399220855,17.167662399220852,193.2412936662311
141.96226415094338,182.46387333954183,17.518612455868954,17.518612455868954,193.4846117602233
141.33962264150944,182.74933229255475,17.387658571820673,17.387658571820673,194.05773071157466
140.7169811320755,183.31870984875522,17.136873817705382,17.13687381770539,193.7674057145651
140.09433962264154,182.8255045780236,17.171534621128377,17.17153462112837,193.5179239921116
139.4716981132076,182.4923034749379,17.086526619411934,17.08652661941193,193.73413305852694
138.84905660377365,183.30314339223085,17.515197292654427,17.515197292654427,193.31801912037668
138.2264150943397,182.38305490745242,17.022026024940903,17.022026024940896,192.5502216759612
137.60377358490564,183.05556240347084,17.54891525242474,17.54891525242475,192.75258073770067
136.9811320754717,183.14932877363123,17.277301477264995,17.277301477264995,193.16003209596323
136.35849056603774,182.90624510912235,17.120068962410738,17.12006896241074,193.62395003960418
135.7358490566038,183.65947294411703,17.14214761389322,17.14214761389322,192.76930506228524
135.11320754716985,183.5221584596352,16.815447228588177,16.815447228588177,192.39953949972002
134.4905660377359,183.89049394656965,17.234908786162073,17.234908786162073,193.12306098232952
133.86792452830196,184.787638317193,18.194133835844426,18.194133835844426,192.7941248000029
133.2452830188679,183.5839445332449,17.172846153590726,17.17284615359073,192.05774171050098
132.62264150943395,184.34412602164636,17.071436285733462,17.071436285733466,191.97873363984263
132.0,183.62995501555082,16.878817932759663,16.87881793275966,192.36967702288035
131.37735849056605,184.00512014283353,16.850147763247993,16.850147763247993,192.7348466640466
130.7547169811321,183.76380766940585,16.735547752325193,16.73554775232519,191.5553632526577
130.13207547169816,184.13268320389335,16.94894644919979,16.94894644919979,191.969671339224
129.5094339622642,184.09008646630934,16.48659432009123,16.48659432009123,191.06355849127456
128.88679245283026,184.7141969316174,16.82684769674079,16.826847696740785,191.80738839545842
128.2641509433962,184.3630824530169,16.71893233948704,16.71893233948704,191.6813228824493
127.64150943396226,184.95927722739015,16.901657289126305,16.901657289126305,191.1979830357152
127.01886792452831,185.0412200220325,16.819879330073718,16.81987933007372,191.9290754049631
126.39622641509436,185.0961656089704,16.86112084655272,16.86112084655272,191.24392479664132
125.77358490566041,185.16443431259157,16.862916985705105,16.862916985705105,191.29470993655875
125.15094339622647,182.93274880420066,16.774471020916693,16.774471020916693,188.91174616377285
124.52830188679252,182.38940378699024,17.05824447949399,17.05824447949399,188.7188320586406
123.90566037735846,183.57873552177995,16.952289100790924,16.952289100790917,189.4378376456296
123.28301886792451,181.58640202752656,16.962187871717948,16.962187871717944,186.3988920963652
122.66037735849056,181.34138322488175,16.99004799949954,16.99004799949954,186.35841869520917
122.03773584905662,181.00015495634187,16.89367539089723,16.893675390897233,186.26472719731473
121.41509433962267,180.51495936015982,17.414747446864343,17.414747446864343,186.27020178572684
120.79245283018872,180.8079431368021,16.842811000665037,16.842811000665037,186.60563944678358
120.16981132075477,181.29413773650262,17.146708459089254,17.14670845908925,185.89032820760866
119.54716981132083,181.0579665465802,16.857676538931106,16.857676538931102,185.87968312589652
118.92452830188677,181.1666509718756,17.188976861235087,17.188976861235084,185.42204273946095
118.30188679245282,181.20803908807267,17.220217885022883,17.220217885022887,185.69810063441815
117.67924528301887,181.4826539682962,17.251195018158,17.251195018158,185.42674052417468
117.05660377358492,181.33142935858706,17.12208125623448,17.12208125623448,185.58991892045904
116.43396226415098,181.57284285155856,16.8318386848198,16.8318386848198,185.91490820006572
115.81132075471703,182.14097211931423,16.968247003439092,16.968247003439096,185.7687623092422
115.18867924528308,181.67222043482442,17.09491978090275,17.094919780902746,185.9672267637154
114.56603773584914,181.16885142373047,16.719286476499764,16.719286476499764,185.70346276385592
113.94339622641508,182.00429771413587,16.61337128660088,16.613371286600884,185.51340017447978
113.32075471698113,182.52724122179876,16.856791141790058,16.856791141790058,185.36338631755487
112.69811320754718,182.2631393679967,16.814466379450238,16.814466379450227,185.31256231224737
112.07547169811323,182.19343971491125,16.70656425889592,16.70656425889592,184.16443704097114
111.45283018867929,182.77148272201146,16.56672548373461,16.56672548373461,184.70814115424815
110.83018867924534,182.71171397264195,16.90422929638885,16.904229296388852,184.37449763525277
110.20754716981139,182.89491613012743,17.030167591172567,17.03016759117257,184.40994513001772
109.58490566037733,182.99212431059198,16.966183679608402,16.966183679608402,184.30651088106595
108.96226415094338,183.02281979448745,16.854796051983865,16.854796051983868,184.24084064446927
108.33962264150944,182.60806745680625,16.358336870704953,16.358336870704957,184.28387242105356
107.71698113207549,183.12533646937283,16.761145307349242,16.761145307349242,184.1670031789476
107.09433962264154,183.25760768279872,16.691394242185197,16.691394242185197,184.7836810382974
106.4716981132076,183.04381976619638,16.642473351971244,16.642473351971248,184.1432139561785
105.84905660377365,183.57450796370705,16.505666738471113,16.505666738471117,184.82578872803523
105.2264150943397,183.27935748337842,16.788786193485674,16.788786193485677,183.44683743837646
104.60377358490564,183.67886637243674,16.768850466800455,16.768850466800462,183.91212517844087
103.98113207547169,183.70629105151014,16.595116162943597,16.595116162943597,183.25044661894094
103.35849056603774,183.13395923910835,16.641288497222465,16.641288497222465,183.7134603137549
102.7358490566038,183.97433300332276,16.681961540453702,16.681961540453702,183.8696773062665
102.11320754716985,183.92585749627386,16.318580946779182,16.318580946779182,184.0669104428235
101.4905660377359,183.78169010374114,16.686950933488767,16.686950933488774,183.25197036385538
100.86792452830196,184.42831996718942,16.309359877385038,16.309359877385045,183.0892528697591
100.2452830188679,183.94463685480875,16.241560008413508,16.241560008413508,183.21241121849815
99.62264150943395,184.25057466106082,16.355376464422665,16.355376464422665,182.76847818741047
99.0,184.36078937228754,16.030312593994793,16.030312593994797,182.9850436907575
98.37735849056605,185.02062769283404,16.54525714522927,16.54525714522927,183.12577679889242
97.7547169811321,184.31031446280517,16.454773971220174,16.45477397122018,183.45910730786238
97.13207547169816,184.0717244654017,16.32068716851654,16.32068716851654,182.68785495277388
96.50943396226421,185.06831207089843,16.4342386422969,16.4342386422969,182.8693953543216
95.88679245283026,185.24078738157695,16.242021544598494,16.242021544598494,182.70888313312136
95.2641509433962,185.50864642173738,16.520143989414468,16.520143989414464,182.2818125542055
94.64150943396226,184.16315711920015,16.218629648599457,16.218629648599453,183.35384641700296
94.01886792452831,184.45233826145645,16.13400512238237,16.13400512238237,183.07564730234805
93.39622641509436,184.78140735183015,16.22032628492191,16.22032628492191,181.77267504028387
92.77358490566041,185.064401550464,16.188426615252308,16.188426615252308,182.22307974779173
92.15094339622647,185.22562100621607,16.208584009990574,16.208584009990574,181.99582164613767
91.52830188679252,184.7014933079468,16.233316388456807,16.233316388456807,181.9811303113089
90.90566037735857,185.0820397710818,15.987711402551453,15.987711402551453,181.9831142302933
90.28301886792451,184.8182417417338,16.16907582034745,16.169075820347448,181.91089794609076
89.66037735849056,185.33464248378536,16.258512121103458,16.258512121103458,182.08378127535218
89.03773584905662,185.3788852571753,16.088447554780384,16.088447554780384,181.87305224252512
88.41509433962267,186.04597908372185,15.990520141485257,15.990520141485257,181.90631483061642
87.79245283018872,185.3742120572323,15.92512940802762,15.925129408027626,181.49965093496246
87.16981132075477,185.54029994062222,15.783557410265452,15.783557410265452,182.16205805723968
86.54716981132083,185.80688298439006,15.957048482648494,15.957048482648494,181.73383370921292
85.92452830188677,185.57723972990527,16.131718017958242,16.13171801795824,180.80980685904697
85.30188679245282,185.41033527798783,16.063415999674714,16.063415999674717,181.18700947447752
84.67924528301887,185.8141204016412,16.345869322642955,16.345869322642955,181.16367410367099
84.05660377358492,185.40193423839963,16.254860311944405,16.254860311944412,180.46296618183882
83.43396226415098,185.0700075275795,15.80157181626782,15.80157181626782,180.75862253542005
82.81132075471703,185.48504586387293,16.037270722016082,16.037270722016082,180.95511228588649
82.18867924528308,185.95893580684233,16.02549387775231,16.02549387775231,180.23891544082431
81.56603773584914,185.7244067840188,16.193931165078407,16.193931165078403,180.78543399959509
80.94339622641508,186.2236148649815,16.09590340572188,16.09590340572188,180.36789256592172
80.32075471698113,185.68635359952282,15.848768962201664,15.848768962201659,180.4368282737873
79.69811320754718,185.74741377232706,15.867334491246412,15.867334491246408,179.8958282029972
79.07547169811323,186.1543895289419,15.902029849738677,15.902029849738671,180.51072562908283
78.45283018867929,186.24485320866648,16.06730929302765,16.06730929302766,179.58774401579578
77.83018867924534,186.1861716954404,16.111672869669125,16.11167286966913,180.21902963523385
77.20754716981139,186.30449560376744,15.954290283117219,15.954290283117214,180.51679484419134
76.58490566037733,186.51263029025336,16.34433545234681,16.344335452346822,179.65902527616967
75.96226415094338,186.56171972302562,15.592240563940951,15.592240563940953,179.71845536396137
75.33962264150944,186.19704306515283,15.835217604456233,15.835217604456233,179.98825068433032
74.71698113207549,186.21849671062262,15.629834364198253,15.629834364198253,179.89867783883304
74.09433962264154,185.91159261075543,15.50052702268784,15.500527022687843,179.664415850978
73.4716981132076,186.75459320147132,15.734769383363766,15.734769383363766,179.8128417342073
72.84905660377365,186.91108833220207,15.74131462399863,15.74131462399863,179.80606039617132
72.2264150943397,186.86733907120515,15.808352141584274,15.80835214158428,179.44424573746946
71.60377358490564,187.3356642778832,15.91480615269033,15.914806152690332,179.8668989893777
70.98113207547169,186.5118626937371,15.675394708090776,15.675394708090776,180.18139034700587
70.35849056603774,187.1336640093745,15.773365201912442,15.773365201912442,178.94135008666157
69.7358490566038,187.09767836824378,15.180963458374027,15.180963458374027,179.4256317342838
69.11320754716985,186.89357356071997,15.22747718281754,15.22747718281754,179.17383061084186
68.4905660377359,187.36625219309533,15.563043159428776,15.563043159428773,179.04148243857125
67.86792452830196,187.02737912144042,15.534028804696575,15.53402880469658,179.40737892209418
67.2452830188679,187.1233154761495,15.547295140426813,15.547295140426812,178.83600101634627
66.62264150943395,187.50626276445888,15.616856593963423,15.616856593963423,179.75350153971155
66.0,187.66779592400366,15.619688450114891,15.619688450114891,178.8441393573635
65.37735849056605,189.3463400860175,15.244756729890533,15.244756729890538,180.9444142939236
64.7547169811321,189.49861462342852,15.65184536886279,15.651845368862793,181.57207056093503
64.13207547169816,189.65139251197107,15.075495896451123,15.075495896451123,181.66695128204455
63.50943396226421,189.39074259638272,15.207265296286645,15.207265296286645,181.22973260483946
62.886792452830264,189.67771745621286,15.35368695130439,15.35368695130439,180.7756625032877
62.2641509433962,189.9499544651453,15.346970782812603,15.346970782812603,180.8952128883621
61.641509433962256,190.0286779561396,15.233630575205288,15.233630575205288,181.22680874052844
61.01886792452831,189.29550385716536,15.32003951022915,15.32003951022915,181.7747377256779
60.39622641509436,190.32136477180813,15.128333720258013,15.128333720258013,181.85082936253642
59.773584905660414,190.39611030800685,15.331281907298681,15.331281907298685,181.11618915794838
59.15094339622647,190.2498051034184,15.30534686992739,15.305346869927385,181.64137183602858
58.52830188679252,190.46957234323992,15.26070296355748,15.260702963557476,180.94549946234972
57.90566037735857,191.06787892335092,15.108234828226832,15.108234828226838,181.6901611001737
57.28301886792451,190.63014921067995,14.996375874075406,14.996375874075406,181.8867997302055
56.660377358490564,190.81778531970596,15.049144121887382,15.049144121887377,181.7717835738178
56.03773584905662,191.0828635431623,14.870969450288472,14.87096945028847,181.47214801732696
55.41509433962267,191.77204860682775,15.12787859834799,15.12787859834799,181.26218995193295
54.79245283018872,190.75011398247014,14.684238905788133,14.684238905788133,182.2035171339574
54.169811320754775,191.11054317354336,14.80366606386581,14.80366606386581,181.74758588693533
53.54716981132083,191.01829604409832,14.812554096542708,14.812554096542714,182.373146919738
52.92452830188677,191.00278778749032,15.271739606880438,15.271739606880438,182.3615090647974
52.30188679245282,191.3165003380176,14.83894665942012,14.838946659420118,181.3986733158048
51.67924528301887,190.789016901425,15.150071464750148,15.150071464750148,180.42998931783382
51.056603773584925,190.6496742471936,14.9719972956997,14.971997295699701,180.59958840345504
50.43396226415098,191.01976919592843,15.021208495246126,15.021208495246126,181.14519789226236
49.81132075471703,191.00337421013415,15.170650595060685,15.17065059506069,181.34803225371599
49.18867924528308,191.09885450932978,14.831595008978248,14.831595008978246,180.35727246850533
48.566037735849136,191.28348005383532,14.878494047220327,14.878494047220324,180.83777686333696
47.943396226415075,191.40561496138463,14.72618993855523,14.72618993855523,181.48389833399943
47.32075471698113,190.50914171888687,14.779250144640216,14.779250144640212,181.1236601103659
46.69811320754718,191.31974679724746,15.279118907914544,15.279118907914544,181.2158659369005
46.07547169811323,191.2054644307685,14.590786732707437,14.590786732707437,180.87543530780243
45.452830188679286,191.59205706731936,14.773490501300591,14.773490501300595,181.27958671617608
44.83018867924534,191.66461294796534,14.564114333611291,14.564114333611291,180.84626279517062
44.20754716981139,190.94541643814068,14.981190172309006,14.981190172309006,180.82054892976964
43.58490566037733,191.34413958727194,14.936104347066657,14.936104347066651,180.8200767684601
42.96226415094338,191.67917914153873,14.978271906266084,14.978271906266084,180.81940823082476
42.339622641509436,191.01500926913766,15.232645539304334,15.232645539304333,180.6743033291367
41.71698113207549,191.16925324662438,14.747516595809923,14.74751659580992,180.76047178527264
41.09433962264154,191.84287933602675,14.895587393411025,14.895587393411025,181.104468094312
40.471698113207594,192.00788929216762,14.954311771961722,14.954311771961722,180.44253218669186
39.84905660377365,191.7084994875438,15.080412126516531,15.080412126516531,180.8079921977046
39.2264150943397,191.80518283109978,14.935794630085457,14.935794630085457,180.59809395287635
38.60377358490564,191.71626581181306,15.00628293930955,15.006282939309544,180.6287619629909
37.98113207547169,191.9005304251463,14.797127346215188,14.797127346215188,180.96567820280467
37.358490566037744,191.74893737524565,14.851599357932562,14.851599357932562,180.59989372105971
36.7358490566038,192.13836675622161,14.6991475809334,14.6991475809334,181.56965705776884
36.11320754716985,192.870316286403,15.049126009758218,15.049126009758218,181.30621174893747
35.4905660377359,192.8769959258897,14.82423655088535,14.82423655088535,181.50160959437798
34.867924528301955,192.46822624755808,14.81069684319656,14.810696843196565,181.15241190884387
34.24528301886801,191.8827135321864,14.76471151872686,14.76471151872686,181.30965268333543
33.62264150943395,192.51896576635184,14.931403161338018,14.93140316133802,180.76908801061813
33.0,192.395833210902,14.764008177048032,14.764008177048032,180.9858083246441
32.37735849056605,191.6943121454668,14.838027936678609,14.838027936678609,180.25153828228582
31.754716981132106,192.3599147834654,14.60570854597265,14.60570854597265,180.85016525363994
31.13207547169816,191.98234473487665,14.90220715920199,14.902207159201994,180.73399906632426
30.50943396226421,192.2026695718382,14.643424183855334,14.643424183855329,180.6637352109655
29.886792452830264,192.2926901267675,14.688360961814457,14.688360961814451,180.35973962464428
29.264150943396203,192.82961730451876,14.795376109785504,14.795376109785504,180.8679610317056
28.641509433962256,192.96330733578216,14.745478265892404,14.745478265892404,181.1623363828842
28.01886792452831,193.18521767412366,14.456285989121401,14.456285989121401,180.98585539235333
27.39622641509436,192.19676192196164,14.741999347676927,14.741999347676924,180.38717620341302
26.773584905660414,192.3424876915218,15.04928166550423,15.049281665504225,180.49956790101203
26.150943396226467,192.62909269855024,14.65250947365127,14.65250947365127,181.00975923420665
25.52830188679252,192.83088636929085,14.892122635174605,14.892122635174605,180.22033135513996
24.905660377358572,191.9545056326222,14.971592434164155,14.971592434164155,180.8245569475412
24.28301886792451,192.87160145822472,14.70487787835368,14.704877878353683,181.51218349967368
23.660377358490564,192.94478075248665,14.73944139024649,14.73944139024649,181.59806659598334
23.037735849056617,193.12587618239868,14.647687394209811,14.647687394209816,181.2273597388648
22.41509433962267,192.41407224102528,14.484006872858147,14.48400687285815,180.28951343542843
21.792452830188722,193.14902336057034,14.251143251669685,14.251143251669685,181.35116808375943
21.169811320754775,192.82233794565101,14.355366802868371,14.355366802868371,181.47602623089222
20.547169811320828,192.88176072137855,14.30299288871825,14.30299288871825,181.42245114028918
19.924528301886767,192.28428245778827,14.640257656995523,14.640257656995525,181.8350571753195
19.30188679245282,193.52247995445293,14.84403281576058,14.844032815760578,181.81116429039534
18.679245283018872,193.07411155811116,14.366090260242874,14.366090260242878,182.1881523993021
18.056603773584925,193.35754194341135,14.473225528359995,14.47322552835999,182.26010822489576
17.433962264150978,193.1860017503239,14.366570098158807,14.366570098158807,182.4159615645929
16.81132075471703,191.06570057176452,14.783828629190761,14.783828629190761,179.21800229360272
16.188679245283083,191.0880136973016,14.74889909071927,14.748899090719272,178.56794639621177
15.566037735849136,190.70104635713574,15.257404209529332,15.257404209529332,179.03754536726296
14.943396226415075,187.9076870053369,15.038515505780728,15.038515505780726,175.67320604300053
14.320754716981128,187.6584682020056,15.359708276102731,15.359708276102726,175.41829871251085
13.69811320754718,188.48922292230137,15.034251853850632,15.034251853850632,175.65189087282317
13.075471698113233,188.16610368015506,15.04270722315305,15.042707223153053,175.3021536088114
12.452830188679286,188.1460696149602,15.29489854798429,15.294898547984292,175.64737252945713
11.830188679245339,188.12021917732807,15.27799640639269,15.277996406392695,176.26046277540806
11.207547169811392,187.59159816305763,15.53308034329228,15.53308034329228,175.88564645310817
10.58490566037733,187.836933960604,15.342595402420423,15.342595402420423,176.00530496749926
9.962264150943383,188.06584117440678,15.23833466597168,15.238334665971678,176.3016559934098
9.339622641509436,187.46724291689654,15.352017233061368,15.352017233061366,176.07072892118998
8.716981132075489,187.52285924627355,15.416009740979723,15.416009740979723,176.336131925664
8.094339622641542,188.0212071081506,15.105473891509343,15.105473891509346,175.8798605097373
7.471698113207594,188.20701565706688,15.233922713309573,15.233922713309573,175.5741063432913
6.849056603773647,188.19297951901734,15.63061381971319,15.630613819713195,176.01009069370025
6.2264150943397,188.14313841978708,15.450999850708522,15.450999850708516,176.47389351235685
5.603773584905639,188.4708745328366,15.225753191348927,15.225753191348927,176.15294152114717
4.981132075471692,187.99815880999947,15.616659871818326,15.616659871818326,176.0086102431097
4.358490566037744,188.62115616706097,15.398321619804856,15.398321619804854,175.84104904286468
3.735849056603797,188.4291584359415,15.521955518604724,15.521955518604724,176.11262351130688
3.11320754716985,188.95309123519257,14.943653426174881,14.943653426174883,175.86248518455292
2.4905660377359027,189.15558254958773,15.062533770417286,15.062533770417286,175.63790864147762
1.8679245283019554,188.82773506004725,15.453209558998044,15.453209558998047,176.474897778567
1.2452830188680082,188.5335831516645,15.200965764607124,15.200965764607119,176.4460916171636
0.6226415094339472,188.92204035377537,15.17877100737961,15.178771007379607,176.05748812527162
0.0,188.3925058301522,15.465230411594275,15.46523041159428,176.2374315295192
