z in mm,sigma xx in mm2,sigma xy in mm2,ysigma yx in mm2,sigma yy in mm2
0.0,151.43154078263913,21.15434466712474,21.15434466712474,131.73136333221132
0.6358381502890174,151.03188262769268,20.780172924964862,20.780172924964862,131.4946113004868
1.2716763005780347,150.9718315736753,20.831360620936813,20.83136062093682,131.22411806776387
1.907514450867052,151.31182178382525,20.963703538847373,20.963703538847376,131.848497724877
2.5433526011560694,151.73794780164738,20.593764984093685,20.593764984093685,133.03748863874577
3.179190751445087,151.75999360454634,20.529674370125782,20.529674370125782,132.31736908698187
3.815028901734104,152.71396940382016,20.71253001892926,20.71253001892926,133.45823281569326
4.4508670520231215,152.73318070725068,20.46740504291665,20.467405042916646,132.71301759478487
5.086705202312139,151.62792434946118,20.67401435267479,20.674014352674785,132.80247806140852
5.722543352601156,151.93515791426202,21.005435153872195,21.005435153872188,133.77895318514555
6.358381502890174,152.7194332830336,21.05343499130688,21.053434991306883,133.6176822330242
6.994219653179191,152.78967467461715,21.238062875051597,21.238062875051597,133.728140678014
7.630057803468208,152.4400054423208,20.8113933831457,20.8113933831457,134.17027527599078
8.265895953757227,152.39215633664452,20.787510221227617,20.78751022122762,134.02619105612573
8.901734104046243,152.65714265980677,21.085720397982872,21.085720397982872,133.99692805993976
9.53757225433526,151.66715189965325,20.414094046941525,20.41409404694153,133.09262011381236
10.173410404624278,152.38017789729716,21.20926392949992,21.20926392949992,134.25156583047414
10.809248554913296,152.36809229139817,20.982626643703128,20.982626643703128,135.02406954941108
11.445086705202312,152.51177393887735,21.45949115266267,21.45949115266267,135.55420338565372
12.080924855491329,152.35808920425103,20.902550100118678,20.902550100118674,133.34434685330947
12.716763005780347,152.88630445188858,21.162068824262025,21.162068824262025,135.25297107983505
13.352601156069365,152.080062853652,20.734194171090323,20.734194171090323,134.7036874944891
13.988439306358382,152.86745884793206,20.6017653003209,20.6017653003209,135.04480031767355
14.624277456647398,153.93395733510462,20.699651538134727,20.699651538134727,136.17894213111413
15.260115606936417,153.44148935041736,20.614640177838627,20.614640177838623,135.22867513308316
15.895953757225435,153.4442842436978,20.776259175171155,20.776259175171152,136.0456490089208
16.531791907514453,153.7143969405471,21.01678604238014,21.016786042380133,135.87880838391746
17.167630057803468,153.2779578488276,20.94176181977184,20.94176181977184,134.57193837995752
17.803468208092486,153.1021532740763,20.651986322665042,20.651986322665042,135.22895956565063
18.439306358381504,153.577948203162,21.06512819951367,21.06512819951367,135.80046049560627
19.07514450867052,152.581464755612,21.075306673733852,21.075306673733856,135.69224268222067
19.710982658959537,152.5872444122839,20.58838916447417,20.58838916447417,135.4977054930318
20.346820809248555,153.1391997442854,20.908351019648332,20.908351019648332,135.67397533162577
20.982658959537574,153.2507963295601,20.324557422749876,20.32455742274987,135.3648577001053
21.618497109826592,156.1084351723405,18.452479148381187,18.452479148381183,136.51536309530508
22.254335260115607,153.8969802607894,20.641911794205868,20.641911794205868,136.95345433830812
22.890173410404625,154.1188217091231,20.5273270813185,20.5273270813185,136.3564350657552
23.526011560693643,155.74921422407755,20.721706334375913,20.721706334375913,137.97151106342912
24.161849710982658,153.50379946423644,21.21678402752458,21.21678402752457,137.4262479258804
24.797687861271676,152.8394334484093,20.90557626840453,20.90557626840453,137.01120585951344
25.433526011560694,154.5247581122309,21.135757847152323,21.135757847152316,138.29817943702653
26.069364161849713,155.1598865568031,20.756933467425398,20.756933467425398,138.05790301377667
26.70520231213873,155.18905510800275,20.269652240112983,20.269652240112986,139.56304183219353
27.341040462427745,155.19594802883913,20.58915106842212,20.58915106842212,138.8217321098552
27.976878612716764,154.86161442720737,20.575791993752553,20.57579199375255,138.7534571474365
28.612716763005782,153.66454341873734,20.95969452020877,20.95969452020877,138.5590401922671
29.248554913294797,154.42100365839056,20.305212295243802,20.305212295243802,138.51396732748736
29.884393063583815,153.50300097380727,20.812532479159614,20.812532479159614,137.69918860884573
30.520231213872833,153.70059134303332,20.29550679792718,20.295506797927175,137.43638142369642
31.15606936416185,153.05706850757932,20.84412191041483,20.844121910414827,137.5216735794459
31.79190751445087,153.12659031544885,20.992436932998846,20.992436932998846,138.7336846972817
32.42774566473989,153.5886263099593,20.567558387336,20.567558387335996,139.4390438445211
33.063583815028906,153.27843856227327,20.576839841837835,20.576839841837835,138.34853402438145
33.69942196531792,152.87725169008277,20.463588843077094,20.463588843077094,138.70070598115115
34.335260115606935,153.6502771864507,20.51760824061316,20.517608240613164,137.88057645532965
34.971098265895954,153.19388863304627,20.25002355162181,20.250023551621815,139.50942437961794
35.60693641618497,153.70162442156428,20.544627715826078,20.544627715826078,139.25098078803026
36.24277456647399,153.69805972361303,20.71607104968842,20.71607104968842,138.82462661646682
36.87861271676301,153.58201947186325,20.816896688283016,20.816896688283016,139.49219786363014
37.51445086705203,153.7335673396966,20.72425475588228,20.72425475588228,138.71167716851474
38.15028901734104,152.7692524029993,20.8312905312658,20.8312905312658,138.22086662386974
38.786127167630056,153.04295467379842,20.493944265043407,20.493944265043403,138.28106054046154
39.421965317919074,152.2453488937657,20.81126928351615,20.811269283516157,139.73366290880153
40.05780346820809,151.78479297017333,20.391967689542973,20.391967689542973,140.62055101781527
40.69364161849711,153.01631097802908,20.768069299033794,20.768069299033794,140.4096961815438
41.32947976878613,153.460990125773,20.577496395876548,20.577496395876548,140.48149433839595
41.96531791907515,153.32710956517184,20.6735066149732,20.6735066149732,141.25431479980375
42.601156069364166,154.2694832543371,20.469370217193195,20.469370217193195,141.58957564803893
43.236994219653184,153.10168577118546,20.322029787146917,20.322029787146917,141.62341867358626
43.872832369942195,154.24237912591798,20.233287077118,20.233287077118,142.00279332397025
44.50867052023121,154.18158372696553,19.988300043950296,19.9883000439503,141.46309649114937
45.14450867052023,153.02734507720552,20.454610014114657,20.454610014114664,141.30531367846157
45.78034682080925,152.08318488803127,20.763415289873365,20.763415289873365,141.87265817666372
46.41618497109827,153.99241448250046,20.961744755747386,20.961744755747386,142.64485793899723
47.052023121387286,153.5465956235879,20.41592025376777,20.41592025376777,142.65784983182095
47.687861271676304,153.49280511578704,20.578917576371484,20.578917576371488,142.6253287961956
48.323699421965316,153.48820011357526,20.38416489572803,20.38416489572803,142.3033484239763
48.959537572254334,153.52307978509316,20.599897283588053,20.59989728358805,142.95321546331098
49.59537572254335,153.88640228208135,20.421602762955605,20.421602762955605,143.23543244203222
50.23121387283237,153.88690322686418,20.581479380877543,20.581479380877543,143.2682921782603
50.86705202312139,154.1358541031201,20.64421435395455,20.64421435395455,143.84232717927344
51.50289017341041,154.35443428415712,20.314468009583912,20.314468009583912,144.21788270763625
52.138728323699425,152.2386227154506,20.614713805965543,20.614713805965543,144.2371524396091
52.77456647398844,153.29791298506873,20.213779734168742,20.213779734168742,144.28507765517628
53.41040462427746,154.2016438843255,20.041345276453008,20.041345276453008,145.6010153515655
54.04624277456647,153.7092237713727,20.30301513373747,20.303015133737468,143.38929406901545
54.68208092485549,152.8174018948049,20.56425376161748,20.56425376161748,145.3154650481827
55.31791907514451,154.20806167640697,19.720498826164764,19.72049882616477,145.91937175797162
55.95375722543353,154.10571869011613,20.37624819772206,20.376248197722063,145.2272607785823
56.589595375722546,152.6119444449363,20.830658753013918,20.830658753013918,145.06205332209242
57.225433526011564,153.25741728413627,20.541039393728415,20.541039393728415,145.19352521740495
57.86127167630058,152.65092131410387,20.81059892084216,20.810598920842164,143.32126362474165
58.49710982658959,153.0436140899501,20.459619006788852,20.459619006788852,144.4860869035979
59.13294797687861,153.66604438221503,20.960074659773205,20.960074659773205,145.73595049441792
59.76878612716763,152.34278914863893,20.410003642873622,20.410003642873622,145.21729957620212
60.40462427745665,154.3776502839411,20.420376349628686,20.42037634962869,146.04997193234112
61.040462427745666,154.09690943049242,20.281456585705826,20.281456585705826,145.8151683497453
61.676300578034684,154.7276528135846,20.307102223764605,20.307102223764605,147.00771490620784
62.3121387283237,153.45921207707167,19.467370389087097,19.467370389087097,147.73412390441956
62.94797687861272,153.65707301936067,20.14351059621989,20.14351059621989,147.12259747420725
63.58381502890174,153.99713178114692,20.247655822148715,20.247655822148715,147.15014427713956
64.21965317919076,153.30828372393051,20.582110272957838,20.58211027295784,148.05025998550644
64.85549132947978,153.77244901485687,20.482593323300534,20.48259332330054,147.52695198365768
65.4913294797688,154.10978209850833,20.1201378933148,20.120137893314805,148.59300237073526
66.12716763005781,153.8738569691639,20.05256829469646,20.052568294696464,148.71106647393557
66.76300578034682,153.8631919048702,20.16295946746091,20.162959467460915,148.50766936181515
67.39884393063583,154.19005613347844,20.01652521476693,20.01652521476693,149.31246642846207
68.03468208092485,154.19653203412065,20.39294391701268,20.39294391701268,148.7500009586946
68.67052023121387,154.29813596660856,20.62408109310367,20.624081093103673,148.57642261866633
69.30635838150289,154.15888006673453,20.37224806120616,20.372248061206164,148.5176320251849
69.94219653179191,154.30260694193925,20.194545363179703,20.194545363179703,149.50406202300329
70.57803468208093,153.8587554248339,19.867390546422044,19.867390546422037,149.00396536532205
71.21387283236994,154.19315200064563,20.024291763089867,20.024291763089867,149.76901057825341
71.84971098265896,154.17256449746958,20.109798812890258,20.109798812890258,150.8304969557459
72.48554913294798,153.87835055112745,19.88917368677371,19.889173686773706,149.875558633354
73.121387283237,154.3605324545757,20.52416221869281,20.52416221869281,150.2447975310771
73.75722543352602,152.6160799149798,20.218190502224815,20.218190502224815,148.48201121242252
74.39306358381504,152.66655208202306,20.31746058390619,20.317460583906197,150.74949767941658
75.02890173410405,152.00969903949965,20.201402952347394,20.201402952347394,150.84050508639456
75.66473988439307,152.22680476112782,20.081188125664738,20.08118812566473,149.62081122765187
76.30057803468208,153.0294059367262,20.57404248771116,20.574042487711154,150.92184461098879
76.9364161849711,154.04282963970113,19.917101105540496,19.917101105540496,152.1561237022649
77.57225433526011,153.38056298719263,19.969169224785304,19.969169224785304,152.06889314692177
78.20809248554913,153.67363771889592,19.971799625649126,19.97179962564913,152.41313805113535
78.84393063583815,153.49203644609943,20.293204847163167,20.293204847163164,152.4941421643576
79.47976878612717,154.20343400501497,19.978769133232653,19.978769133232653,152.2594019428796
80.11560693641619,154.01498071192933,19.886903028557015,19.88690302855702,151.76110398079902
80.7514450867052,154.19873645519186,19.843697757334535,19.843697757334535,152.35234158198216
81.38728323699422,153.16817106995842,20.33076611334965,20.330766113349647,153.13162514411712
82.02312138728324,153.50310916349594,20.190757800771063,20.190757800771063,152.60930915162157
82.65895953757226,155.00391038000723,20.338747605867738,20.338747605867738,153.34347221615354
83.29479768786128,154.04871038124213,20.067407516103163,20.067407516103163,152.95626982948306
83.9306358381503,152.4220423243667,20.2108335791317,20.210833579131705,153.95067869865227
84.56647398843931,153.98811525383962,20.20669709517938,20.206697095179376,154.210533087351
85.20231213872833,153.1035987937353,19.99705755118443,19.99705755118443,154.55841405856734
85.83815028901735,153.32262995946448,20.044257630264276,20.044257630264276,153.5951096825626
86.47398843930637,153.04032772835524,20.03197389622216,20.03197389622216,153.53639749565255
87.10982658959537,153.01623446620732,20.231627248205008,20.231627248205008,154.97759942000312
87.74566473988439,153.27024039887363,20.48055919579367,20.48055919579367,154.4137386808333
88.38150289017341,153.54525373388503,20.14693570323203,20.14693570323203,154.9384116054064
89.01734104046243,153.12844890357277,19.969314239844454,19.96931423984446,156.21584806781914
89.65317919075144,153.61417488594833,20.15045151038021,20.15045151038021,155.95620796321626
90.28901734104046,154.1292509235719,20.095670403816285,20.095670403816285,156.59815304604928
90.92485549132948,153.66033070619815,20.251132195249284,20.251132195249284,156.43207580590274
91.5606936416185,153.22653920918657,20.399455559172825,20.399455559172825,156.1838693684144
92.19653179190752,153.64427833042612,19.835023589669753,19.83502358966976,155.9727461500699
92.83236994219654,153.22403478376214,20.506588784346448,20.506588784346448,155.70552970908574
93.46820809248555,152.96396842003148,20.010512068571806,20.010512068571806,155.78019083192456
94.10404624277457,153.5701717958397,19.868434867014766,19.868434867014766,157.9193201593214
94.73988439306359,153.4222918237804,20.23547693552061,20.23547693552061,157.1512173029606
95.37572254335261,152.61691555082257,20.36556128799597,20.36556128799597,156.32030445765946
96.01156069364163,153.25049437411874,20.041347441621756,20.041347441621763,157.48334584117816
96.64739884393063,153.87660884708984,19.807730020104426,19.807730020104426,157.38812867137253
97.28323699421965,152.8227493544663,19.870726522009843,19.87072652200984,157.51193001165726
97.91907514450867,153.76060276851808,19.972168582625073,19.972168582625077,158.4392532423032
98.55491329479769,152.5822651758164,20.501065853031847,20.501065853031847,157.32798333822296
99.1907514450867,152.21418300464208,19.969713989474847,19.96971398947485,158.09803400829892
99.82658959537572,152.76277914468668,20.112905981150778,20.112905981150774,159.2463109873932
100.46242774566474,151.60072806035652,20.29776117748782,20.297761177487825,157.82182279278044
101.09826589595376,152.46425939088996,20.36943084638648,20.36943084638648,158.0314993738786
101.73410404624278,152.17281217436826,20.00006258388773,20.000062583887722,158.67120696875705
102.3699421965318,152.44505643170774,20.38530799881179,20.38530799881179,158.26820499152558
103.00578034682081,152.47414264798985,20.460415042030522,20.460415042030522,159.28736629746135
103.64161849710983,152.9254997131449,20.320015546474323,20.320015546474323,159.44396805139897
104.27745664739885,152.6537278838018,20.503767074486262,20.503767074486262,160.04082690226178
104.91329479768787,152.48788525198938,20.055350864106412,20.055350864106412,159.62311334607554
105.54913294797689,152.36134812555474,20.24889705212332,20.248897052123322,160.3515157673428
106.1849710982659,152.25644699032634,20.48293127022053,20.48293127022053,160.22026705634227
106.82080924855492,152.14898453909018,20.427768888037484,20.427768888037487,159.34368770141216
107.45664739884393,152.2749605096386,20.054023322562493,20.054023322562493,161.2435877956677
108.09248554913295,151.8808748253625,20.446614681098968,20.446614681098968,160.0931467994844
108.72832369942196,151.57553770026027,20.33069321207832,20.33069321207833,161.4034857275366
109.36416184971098,151.82684725852747,20.687905233549913,20.687905233549916,161.0339029225199
110.0,151.84266179667245,20.36878822194868,20.36878822194868,160.4049545334734
110.63583815028902,150.8444363014754,20.678153525470634,20.67815352547063,160.8099439636152
111.27167630057804,151.276560196591,20.490552941304877,20.490552941304877,161.20750305936835
111.90751445086705,150.90050038755976,20.524571775577556,20.524571775577552,160.96774984649122
112.54335260115607,150.91326753521267,20.58458794181727,20.58458794181727,161.1158759447995
113.17919075144509,150.34340372649984,21.076939735906222,21.076939735906226,160.86136187056707
113.81502890173411,151.31588875671036,20.69844851089005,20.698448510890053,161.92806256007208
114.45086705202313,151.33012143332124,20.310105160255965,20.310105160255965,162.39245575046948
115.08670520231215,151.47729457122782,19.899155801092114,19.899155801092114,162.6367362205803
115.72254335260116,150.4209692288168,20.40838047629911,20.408380476299115,161.57101547466783
116.35838150289018,150.57646010101476,20.635149581936098,20.63514958193609,162.50014334525372
116.99421965317919,149.77487580880617,20.626786091431264,20.626786091431264,163.10430525293037
117.6300578034682,150.30646878426464,20.746514944516765,20.746514944516765,162.51977230226692
118.26589595375722,151.05657968736784,20.23620492077955,20.23620492077955,163.38824290019173
118.90173410404624,151.39769431588235,20.138185232320552,20.13818523232055,163.1765876336749
119.53757225433526,150.5326777301,20.986201851807095,20.986201851807095,163.40971749438037
120.17341040462428,150.52894633199656,20.90428929571614,20.90428929571614,164.08562003596035
120.8092485549133,149.86731558323424,20.842691413014013,20.842691413014006,164.43618049742483
121.44508670520231,150.86543314888775,20.513368425631857,20.51336842563186,164.1121173472184
122.08092485549133,150.60584129326728,20.80351329299798,20.80351329299798,164.20610361636167
122.71676300578035,150.19947484668478,21.038922425878027,21.038922425878027,164.3453539178013
123.35260115606937,149.7817629444259,20.60018138549387,20.600181385493865,164.17701355794438
123.98843930635839,149.91113709181602,20.689663798009217,20.68966379800922,164.78135594334694
124.6242774566474,150.3910312101491,20.45186074052071,20.45186074052071,165.883961143924
125.26011560693642,151.00319591301502,20.62626556019568,20.62626556019568,165.88672498532694
125.89595375722544,150.92736324003408,20.055404120628047,20.055404120628047,165.29708798131634
126.53179190751446,151.55403699058365,21.310547181962317,21.310547181962317,166.73897060812968
127.16763005780348,149.6736561978411,20.639486328633566,20.639486328633566,166.93707385567438
127.80346820809248,149.5111942019596,20.726478374004706,20.72647837400471,166.9735718103446
128.43930635838151,150.80648167105437,20.375642035989397,20.375642035989397,166.4091615031869
129.07514450867052,150.64905068965655,20.463127248328227,20.46312724832823,168.21259939155635
129.71098265895955,149.7478125881146,20.72527830722603,20.72527830722602,167.81223864318162
130.34682080924856,150.2161996373562,20.741488004094972,20.741488004094972,167.63326602264408
130.9826589595376,149.96643998995313,20.640749626617897,20.640749626617897,167.4265802681918
131.6184971098266,150.85038295984097,20.33308930844406,20.33308930844406,167.2055794054837
132.25433526011562,150.01517813585394,20.735087067165274,20.735087067165267,167.10622111884464
132.89017341040463,149.14614272223005,20.99176956598497,20.991769565984967,167.8341791561121
133.52601156069363,149.2335590551238,20.709513543926946,20.709513543926946,167.77656173533686
134.16184971098266,149.53502518674765,20.83798934502567,20.83798934502567,168.7848661378219
134.79768786127167,150.04249296158554,20.490355060414863,20.490355060414863,171.86062256835245
135.4335260115607,149.21466090048818,21.11340732822881,21.113407328228806,171.8054398586602
136.0693641618497,150.36853110300726,20.785202924830706,20.785202924830703,172.49969313209954
136.70520231213874,149.81002189856176,21.230109404679148,21.230109404679148,173.32293115866034
137.34104046242774,150.14939541214505,20.756330328237706,20.756330328237706,173.29524374950032
137.97687861271677,155.32395270969403,21.858433561617403,21.858433561617403,172.51873021790377
138.61271676300578,150.13727540669282,20.833740398859952,20.83374039885996,173.04561527145228
139.2485549132948,149.89237488757212,20.904666656167525,20.904666656167525,172.27578049348745
139.88439306358381,151.34843139983113,19.06057619435093,19.06057619435093,175.20326318141326
140.52023121387285,149.48850575933648,20.879036664923202,20.879036664923206,173.99498879167845
141.15606936416185,150.3973720038677,20.42546110375814,20.425461103758145,174.55743441945523
141.79190751445088,149.42192829144054,20.799751067708996,20.799751067709,174.91175692363316
142.4277456647399,149.37498687262763,20.568044330576843,20.568044330576846,175.16701142672895
143.0635838150289,149.60749386240562,20.705418050969893,20.705418050969893,175.51649040748205
143.69942196531792,149.35550367469597,21.216315219012365,21.21631521901237,173.92241274385768
144.33526011560693,148.36342584685406,21.199173592935715,21.199173592935715,173.98556663897176
144.97109826589596,148.05687381174718,20.925561003779055,20.925561003779055,175.110640702303
145.60693641618496,148.78748718715715,20.703783268114588,20.703783268114588,175.31540108229748
146.242774566474,149.070787212331,21.088504666903688,21.088504666903688,174.90928382818166
146.878612716763,148.9946005407095,20.998344815768636,20.998344815768633,175.51469577215326
147.51445086705203,148.86891971126295,21.08192269376981,21.081922693769812,174.9700405157653
148.15028901734104,149.05993054204473,20.644589618044638,20.644589618044638,175.75925132502698
148.78612716763007,148.5974828654225,21.378697675177794,21.378697675177797,176.09355019544736
149.42196531791907,148.853902235796,21.313348407336917,21.313348407336917,176.6299827719582
150.0578034682081,148.48131963373933,21.290169351678184,21.290169351678184,175.6796447860023
150.6936416184971,148.86116648707414,21.86682451381015,21.866824513810155,176.2295565460303
151.32947976878614,148.32104846400918,21.44151210119973,21.44151210119973,176.07823252577336
151.96531791907515,147.08881992082354,20.63954044446841,20.639540444468413,175.88081761739255
152.60115606936415,147.52895248922448,20.85830792284733,20.85830792284733,176.43330424342247
153.23699421965318,147.3309814970947,21.213184111090474,21.213184111090474,176.57847581904616
153.8728323699422,148.28053159203893,21.136238135998752,21.136238135998756,178.12962777322417
154.50867052023122,148.06842156186536,20.41308917796705,20.41308917796705,177.36857262156252
155.14450867052022,148.53648060518043,21.485466460339282,21.48546646033929,177.47655938091435
155.78034682080926,147.92805382464792,21.662587703875737,21.662587703875737,178.129147309411
156.41618497109826,148.33277293923211,20.996159547995383,20.996159547995383,177.5044024039762
157.0520231213873,147.9169559285538,21.261787999735994,21.261787999735986,178.77847778113727
157.6878612716763,148.0807244922025,21.500748390575936,21.500748390575936,179.03148227191895
158.32369942196533,148.15952158435314,21.260178611268348,21.260178611268348,178.90757634909798
158.95953757225433,148.2056628176086,21.361621963777004,21.361621963776997,178.6077956545205
159.59537572254337,148.29535786038173,21.563226865828323,21.56322686582832,179.20404948746062
160.23121387283237,147.67263028284006,21.021972806278296,21.021972806278296,179.53489318848708
160.8670520231214,147.29376726847323,21.497491139540674,21.497491139540678,178.29272189110395
161.5028901734104,148.23502433751483,21.32925367956407,21.32925367956407,180.54103472792113
162.13872832369944,147.94174748694368,21.181175772737653,21.181175772737657,179.61707688101333
162.77456647398844,148.0653878542083,20.950949054152005,20.950949054152005,180.32550057802135
163.41040462427745,147.82989241256738,21.09061735241138,21.09061735241138,180.46678361681523
164.04624277456648,147.08421618498053,21.34543230480297,21.345432304802966,180.09306576310897
164.68208092485548,147.5300920434914,21.01316262471313,21.01316262471312,179.78940963859262
165.31791907514452,147.94958348348462,21.020538472693936,21.020538472693936,180.15903080008735
165.95375722543352,147.3784327052714,21.04579685987099,21.045796859870993,180.328336193855
166.58959537572255,147.80305223781312,20.96407284967302,20.96407284967302,180.65280905740764
167.22543352601156,146.91718125072435,21.36964496871947,21.369644968719463,180.24217208118299
167.8612716763006,147.90432562253582,21.218240538176488,21.218240538176488,180.66265572663164
168.4971098265896,147.66245939259852,21.67026971608733,21.670269716087333,181.51917844477154
169.13294797687863,147.5208727929877,20.981220376726238,20.981220376726238,181.3681584085861
169.76878612716763,147.42024434491847,21.12231302933504,21.122313029335032,181.36025704527393
170.40462427745666,147.0572289908385,21.127548932741515,21.127548932741515,181.31189892760383
171.04046242774567,147.16215999072418,21.228063054140446,21.228063054140446,181.58694797434225
171.6763005780347,147.15102028389774,20.9922969946605,20.9922969946605,181.3528445320789
172.3121387283237,149.39939701850767,19.015360979194757,19.015360979194757,181.92485974679911
172.94797687861274,146.25155955928943,21.353871657949973,21.353871657949973,181.5868957309442
173.58381502890174,152.1860158336867,22.453945889365393,22.4539458893654,180.40933704470638
174.21965317919074,146.46378574227126,21.726017624124825,21.726017624124832,181.85269696253414
174.85549132947978,148.2249614864179,21.152581230728146,21.152581230728146,183.5277929090986
175.49132947976878,147.61257156845815,20.848418173758905,20.848418173758905,182.999429113384
176.1271676300578,147.4705772410968,21.281287592052287,21.28128759205229,182.78329912762322
176.76300578034682,146.43991042812002,21.59276670637084,21.59276670637084,183.9574731246649
177.39884393063585,146.81615241876025,21.632179670876553,21.63217967087655,183.2377083185498
178.03468208092485,146.51082612395783,21.137448114563295,21.137448114563288,184.12736808828308
178.67052023121389,147.7026241515888,21.017274303741285,21.01727430374129,183.12670682373977
179.3063583815029,147.30562115356798,21.07240308430747,21.072403084307478,184.62022834699388
179.94219653179192,147.44716544410812,21.590392577983533,21.590392577983533,185.104791484792
180.57803468208093,146.9297819243675,21.763554516159996,21.763554516159992,184.5586038462785
181.21387283236996,147.5087367567647,21.515728676561007,21.51572867656101,185.12895694243952
181.84971098265896,148.21806647538162,22.063090773610856,22.063090773610863,185.73838877683679
182.485549132948,147.81805123276098,21.482961564190994,21.482961564190997,185.37352717012323
183.121387283237,147.31096918151667,21.343767338166803,21.343767338166803,185.36624161776345
183.757225433526,146.3787987806088,21.694546224726924,21.69454622472693,185.5245357319215
184.39306358381504,146.67076164757322,21.467774138965062,21.46777413896506,185.98018192135007
185.02890173410404,146.95062738228614,21.66985280373548,21.669852803735488,185.6503493803762
185.66473988439307,147.29193369229264,21.048496736111606,21.04849673611161,185.84277953664522
186.30057803468208,146.77893138317498,21.80192764983306,21.80192764983306,186.49410830276497
186.9364161849711,146.6008192965757,21.774464593078008,21.774464593078008,185.80775050337468
187.5722543352601,147.28013379077478,22.039056025095107,22.039056025095107,185.49420756385086
188.20809248554914,147.82035199636312,21.644983689227637,21.644983689227637,186.2070559980989
188.84393063583815,146.56659913803733,21.572707809045223,21.572707809045223,186.77239581075733
189.47976878612718,147.55934357663054,21.844606165123103,21.844606165123096,186.59046806606077
190.11560693641619,147.82675521304157,21.753798592627046,21.753798592627046,186.43949711556115
190.75144508670522,146.92264018995317,21.20431674615524,21.20431674615524,187.30217997463546
191.38728323699422,147.43791996167755,21.441078077487962,21.44107807748796,187.4370250543314
192.02312138728325,146.89756173887847,21.772868805225556,21.77286880522556,187.76644447609144
192.65895953757226,146.33318031129804,21.560497392616455,21.560497392616455,187.93604742796938
193.29479768786126,146.8289693686847,21.602521630229695,21.602521630229695,187.3288228840141
193.9306358381503,147.1373149839777,21.5350072488706,21.5350072488706,188.26308228017263
194.5664739884393,147.31712729691228,21.067788733165482,21.067788733165482,188.65674206449893
195.20231213872833,147.33270783752158,21.635532151258015,21.635532151258023,188.65952704387806
195.83815028901734,147.28794925662777,21.238414179200973,21.238414179200973,188.04753569512968
196.47398843930637,147.6686745293642,21.62746042103802,21.627460421038016,188.96070644487153
197.10982658959537,146.95026113877796,21.78648270867246,21.786482708672455,187.4968810284794
197.7456647398844,146.44633811443282,22.090457995198584,22.090457995198587,188.10932379947738
198.3815028901734,146.942910071936,21.588855216178352,21.588855216178352,188.46678851422573
199.01734104046244,147.11173255373012,21.520588775120185,21.520588775120178,188.94081815033857
199.65317919075144,147.55264849932263,21.73251557044409,21.732515570444086,189.62773086233918
200.28901734104048,147.06276153264116,21.94369995628947,21.943699956289468,190.1105925000163
200.92485549132948,146.5492015074729,21.401321519157808,21.401321519157808,190.2914406108854
201.5606936416185,148.70061466006638,22.67920509460771,22.67920509460771,189.56050799245452
202.19653179190752,147.4722010372212,22.009339444398428,22.009339444398428,189.0269850887978
202.83236994219655,146.82189006087748,22.085893348820797,22.085893348820797,190.21730221873068
203.46820809248555,147.0863391020444,21.505708262286607,21.505708262286607,189.25274385544694
204.10404624277456,146.15418852771776,21.88495856024207,21.88495856024207,189.45201751736414
204.7398843930636,146.07297976345333,21.64577191485597,21.64577191485597,190.1261800955674
205.3757225433526,146.96224103183792,21.89827157895161,21.898271578951608,190.34646493455227
206.01156069364163,146.07483601571303,22.16423880714486,22.16423880714486,190.2827264271486
206.64739884393063,146.38268246391627,21.957791148127903,21.957791148127903,190.46933744764854
207.28323699421966,146.2299921379014,21.53719093810932,21.53719093810932,190.6216845786776
207.91907514450867,146.23186831971177,21.508340850267945,21.508340850267945,190.9622958501748
208.5549132947977,145.52566170603288,21.90413584024679,21.90413584024679,191.04988108188684
209.1907514450867,146.6991729899875,22.06788751675847,22.06788751675847,191.08555211337114
209.82658959537574,146.53756081322234,22.23162149618002,22.231621496180015,190.71947610858064
210.46242774566474,147.21706834523175,22.06324293555022,22.06324293555022,191.25167958036602
211.09826589595377,146.56689685731894,21.879948952646096,21.8799489526461,191.63921994649417
211.73410404624278,147.12966447894644,21.771170014776423,21.771170014776427,191.69158076604478
212.3699421965318,147.08606413619827,21.628999134736425,21.628999134736425,191.6974999507139
213.0057803468208,146.45329983420805,21.934366504975266,21.93436650497526,191.65759405395843
213.64161849710985,147.08544685306396,21.385765818967545,21.385765818967545,191.98058036309718
214.27745664739885,147.04587410710752,21.891717709552072,21.891717709552076,192.67038491495083
214.91329479768785,147.07058286728767,21.878956274445923,21.87895627444593,192.33698023995046
215.5491329479769,147.50655041011228,21.83169913479563,21.831699134795635,193.22451371801336
216.1849710982659,147.4081342287762,21.695537457992934,21.69553745799293,192.01744925239464
216.82080924855492,147.3572104785477,21.630646921752668,21.630646921752675,192.34412678136155
217.45664739884393,147.2900750411334,21.894132306117328,21.894132306117328,192.88573088251562
218.09248554913296,147.30564950498868,21.745666991831452,21.74566699183145,191.99542072944573
218.72832369942196,147.52270840249247,21.826336143446245,21.826336143446255,193.08545657629753
219.364161849711,147.3643714146158,21.888404653047886,21.88840465304789,193.45188756078474
220.0,146.52548566828366,21.910591079899977,21.910591079899977,193.48578924169487
220.63583815028903,146.29688905906454,22.025694048118144,22.025694048118137,192.6446063317096
221.27167630057804,147.66760141852032,21.468298577267564,21.468298577267564,193.6904373141324
221.90751445086707,147.93661203803273,21.638089763952493,21.638089763952493,194.0321073820889
222.54335260115607,147.20557652170973,21.699428876525694,21.69942887652569,194.338096707829
223.1791907514451,147.5508711817467,21.986763929803274,21.98676392980327,193.37878663523801
223.8150289017341,147.35813825180225,21.833504410057287,21.83350441005729,193.78226475664312
224.4508670520231,147.7491112028808,20.864105229299106,20.864105229299106,195.01570376157844
225.08670520231215,147.21494505921243,21.45541059378337,21.45541059378337,195.59264274960287
225.72254335260115,148.21591063872143,21.529227185114546,21.529227185114546,194.54370924298084
226.35838150289018,148.02801127589694,21.531560668363003,21.531560668363003,194.71694316297817
226.9942196531792,148.0695821188528,21.460584631539263,21.460584631539266,195.5376024897606
227.63005780346822,148.00855994031,21.665951364625986,21.665951364625993,195.39582118297142
228.26589595375722,147.59876079045077,21.481409851373765,21.481409851373765,195.6191905497322
228.90173410404626,147.8552660934768,21.844924886652123,21.844924886652127,196.07261548949563
229.53757225433526,147.7023806754512,21.38087459313036,21.38087459313036,195.65331198559167
230.1734104046243,147.94771548034825,21.982782394911943,21.982782394911936,195.6934876471805
230.8092485549133,147.97696452658542,21.754828646701156,21.754828646701156,195.44584933932668
231.44508670520233,147.7227795813804,22.075376211777744,22.075376211777744,195.45952753225683
232.08092485549133,148.233071226936,21.97195175643406,21.97195175643406,195.64716824947087
232.71676300578036,148.54844368708982,21.53168215343766,21.53168215343766,195.79439267143516
233.35260115606937,148.35480171270316,21.93810224033597,21.93810224033597,195.77943819933
233.98843930635837,147.93906947343487,21.916767820771145,21.916767820771145,194.61308812782013
234.6242774566474,148.02576322603235,22.209116970755883,22.209116970755886,196.87715631086417
235.2601156069364,148.43754510312425,22.050444810965054,22.05044481096506,197.12687371347053
235.89595375722544,148.19968417512007,21.669333942251807,21.669333942251807,196.87964221789198
236.53179190751445,147.6974285880069,22.17794362668409,22.17794362668409,196.69985406046374
237.16763005780348,148.84934357556943,22.467900443858667,22.467900443858667,195.29898673264393
237.80346820809248,148.80407964278677,22.105732869664255,22.10573286966426,197.15541080070946
238.43930635838151,148.995418342991,21.88869658407105,21.888696584071056,197.15971050588286
239.07514450867052,148.94420943437734,21.832233087054153,21.832233087054153,196.92519317272394
239.71098265895955,148.43858702925436,21.899161773798934,21.899161773798937,197.09889135288074
240.34682080924856,148.8206617758323,21.844475690030546,21.84447569003054,197.4925074790434
240.9826589595376,148.73564996565884,21.811982627043808,21.811982627043815,198.09560388014236
241.6184971098266,149.3941018402997,21.789564018641055,21.789564018641045,197.14221150724484
242.25433526011562,149.85332751785546,21.589992628971522,21.589992628971522,197.92443548572203
242.89017341040463,148.76054330966744,22.34693853642696,22.346938536426965,197.69313329071107
243.52601156069366,149.64076802341248,21.862534563400434,21.862534563400434,198.2021297038522
244.16184971098266,149.6699015169994,22.094311733985695,22.094311733985695,198.18019445707614
244.79768786127167,149.52097730905788,21.787165323749722,21.787165323749726,198.15934048286135
245.4335260115607,149.6933876379338,21.81420050553485,21.81420050553485,198.18669489799098
246.0693641618497,149.28018899289364,21.687578147751616,21.687578147751616,198.78265045465355
246.70520231213874,149.3322874701577,21.57093692807145,21.570936928071447,197.6343757934728
247.34104046242774,149.29831041592507,21.550310172586684,21.550310172586677,199.0938703833842
247.97687861271677,149.18601946425184,21.655604088000665,21.65560408800066,197.8324306486827
248.61271676300578,148.5546652401618,21.82606949961525,21.82606949961525,198.53543409113053
249.2485549132948,149.70624332893414,21.803921798857704,21.803921798857708,198.2623267292215
249.88439306358381,149.54150715345202,21.706734901410005,21.706734901410012,199.1273580544537
250.52023121387285,149.0136300993199,21.19848337181469,21.19848337181469,198.6489534368591
251.15606936416185,148.74865699963465,21.550650091337523,21.550650091337534,198.35258998975957
251.79190751445088,149.89828595762256,21.702228886616506,21.702228886616506,198.6290556511395
252.4277456647399,149.64301109139632,22.02802022902868,22.028020229028684,198.97389279622539
253.06358381502892,149.73200197495564,22.03548760246041,22.03548760246041,199.41119667816355
253.69942196531792,150.50443048676257,22.000197015232516,22.000197015232516,199.10698368702523
254.33526011560696,150.47154496153925,21.480674442684716,21.480674442684716,199.6494877408263
254.97109826589596,150.4128317828874,21.831208851614573,21.831208851614576,199.69898552156354
255.60693641618496,150.09784334539341,22.08073913989675,22.08073913989675,199.50782471931933
256.242774566474,150.91910815642942,21.753040453247763,21.753040453247763,199.0846576969726
256.87861271676303,150.28619820395795,21.92789263560642,21.927892635606426,199.72315321365312
257.514450867052,151.26914888478356,21.67248815471718,21.67248815471718,199.84814504649214
258.15028901734104,151.0223350033358,21.632373835262598,21.632373835262594,199.81458331306305
258.78612716763007,151.06824145808662,22.273227101061213,22.273227101061213,199.37292340925063
259.4219653179191,153.40488737797494,22.740030351646162,22.740030351646162,199.1498093697103
260.0578034682081,151.44303591351772,21.72229425934739,21.72229425934739,198.88744167706375
260.6936416184971,150.2973996649457,21.504777624425405,21.504777624425405,199.94897950687894
261.32947976878614,150.3734693275357,21.80423822563791,21.804238225637913,199.62350795514502
261.9653179190752,150.6212621935505,21.59163289344321,21.59163289344321,199.84774319500062
262.60115606936415,151.03754375027748,21.25307804353514,21.253078043535137,199.79818416139628
263.2369942196532,150.40485744163402,21.607098293383714,21.60709829338371,199.7839298358998
263.8728323699422,150.84984632640484,21.458322781395463,21.458322781395466,199.17163245765929
264.50867052023125,150.86241737780603,21.223664175596124,21.223664175596127,199.77297279859397
265.1445086705202,150.53101998512753,21.261808324431826,21.261808324431822,199.56087747614578
265.78034682080926,150.34855736227692,22.04774678223055,22.047746782230554,199.7499925171617
266.4161849710983,151.25326293131545,21.67676342937832,21.67676342937832,199.4324823687881
267.05202312138726,151.69320823157048,21.661638033711377,21.66163803371137,199.75591392183398
267.6878612716763,151.897530824277,21.51513859928652,21.515138599286516,200.1776869729753
268.32369942196533,152.0978459316922,21.55700488981072,21.557004889810717,199.6312557165683
268.95953757225436,151.14835158628074,21.651919001548354,21.651919001548357,199.31059958693163
269.59537572254334,151.46867437637948,21.596942409170182,21.596942409170186,199.60675452447268
270.23121387283237,151.75658329325736,21.622598142511986,21.622598142511986,199.09505218188366
270.8670520231214,151.7184469233292,21.358427623770616,21.358427623770606,199.7675531890484
271.50289017341044,152.27231310986352,21.611474713127247,21.611474713127247,199.58752927755853
272.1387283236994,151.1627677692818,21.395238051178833,21.395238051178833,199.67984225951568
272.77456647398844,152.12332773999645,21.40390051577235,21.40390051577235,199.743698937089
273.4104046242775,152.94647866609168,21.603674157188273,21.60367415718827,199.91258406309785
274.0462427745665,151.52682115636,21.70403251469482,21.704032514694827,201.36869889486326
274.6820809248555,151.86110718352037,21.054075025668354,21.054075025668357,200.95888609927775
275.3179190751445,152.53673412866638,21.26745694891965,21.26745694891965,200.20565099313458
275.95375722543355,152.51519297513875,20.76829990419184,20.76829990419184,200.3299184662716
276.5895953757225,152.38945906220033,20.691822122743073,20.69182212274308,202.32163274930102
277.22543352601156,152.05848654176094,21.279842775819795,21.279842775819795,200.12568520638203
277.8612716763006,152.47994058399513,21.182954956609066,21.182954956609073,200.10900935295297
278.4971098265896,153.17173613695323,20.870881147211016,20.87088114721102,199.96902876751278
279.1329479768786,152.45853344574678,20.90460728481691,20.904607284816908,199.79385013176451
279.76878612716763,152.6186069773831,21.173895151104425,21.173895151104418,200.75745940454027
280.40462427745666,152.7181967782208,21.143980039798738,21.143980039798738,200.5554308233363
281.0404624277457,152.61408839307927,21.57100625678891,21.571006256788912,200.09440298310304
281.67630057803467,152.94410387534484,21.31016759213624,21.31016759213624,200.13923763497687
282.3121387283237,152.97403092888936,21.33260775863319,21.332607758633188,199.69406035316234
282.94797687861274,151.9964255133854,21.247010017968037,21.247010017968034,199.77375267809845
283.58381502890177,153.4198400223505,21.14195686030724,21.141956860307246,200.01062084291675
284.21965317919074,152.827868751237,21.240807353593276,21.240807353593276,199.62524909158645
284.8554913294798,153.1993873145882,20.830295962182575,20.830295962182575,200.21664930157758
285.4913294797688,152.4727614561176,21.027809222300995,21.027809222300995,199.73672487038772
286.1271676300578,153.9556724157717,20.951513078169274,20.951513078169278,199.33745764736528
286.7630057803468,153.5290234895417,21.327560522939123,21.32756052293912,200.55595767335763
287.39884393063585,153.58015493831573,21.03465470351864,21.034654703518648,200.81023841285267
288.0346820809249,152.75484613087562,20.808799803307668,20.80879980330767,200.8529655683505
288.67052023121386,154.41561597414358,21.1713245557345,21.1713245557345,201.18257815043407
289.3063583815029,154.77675988698599,20.987592812363147,20.987592812363147,200.13694196703094
289.9421965317919,154.12643776540315,21.207319915544208,21.207319915544208,199.92060895963985
290.57803468208095,154.7304828372518,20.93804538104443,20.93804538104443,200.51149650434084
291.21387283236993,154.34252615904938,21.095920641705323,21.095920641705327,200.4966989059681
291.84971098265896,154.11198172334687,21.138907528882935,21.138907528882935,200.4292132377358
292.485549132948,154.66209203198522,20.743463561921768,20.743463561921768,200.1903341733359
293.121387283237,154.78824214055058,20.97837068005458,20.97837068005458,200.17883430833723
293.757225433526,154.47364952109947,21.151678116926526,21.151678116926526,200.20596618431304
294.39306358381504,154.552620990341,20.772906801705616,20.772906801705616,200.2636948252213
295.02890173410407,154.5375279005511,21.00354635590951,21.003546355909506,200.01954827854368
295.66473988439304,154.8585415731352,20.74367941127227,20.743679411272275,200.8386299330183
296.3005780346821,154.5854865094451,20.736665298423585,20.736665298423585,200.09766543566872
296.9364161849711,155.18832813004042,20.839061211524513,20.839061211524513,200.10499988574918
297.57225433526014,155.63193698840882,21.181848706136915,21.18184870613692,200.73326945253575
298.2080924855491,155.83499354316476,20.38280753426459,20.38280753426459,200.50884481811974
298.84393063583815,155.48284851105635,20.404373955861903,20.404373955861903,200.06575714509688
299.4797687861272,155.46539369801488,20.92421554465397,20.92421554465396,200.26946641242003
300.1156069364162,155.54480162764858,20.89411985792255,20.89411985792255,201.11332764040438
300.7514450867052,156.1992391444654,20.58809935982345,20.588099359823445,200.43058555199548
301.3872832369942,155.91589505814065,20.9214797750051,20.9214797750051,200.3468090616623
302.02312138728325,155.77971995668335,20.998118180560454,20.998118180560443,200.48443616524577
302.6589595375723,156.1211158186932,20.93642763470013,20.93642763470013,201.02657661378302
303.29479768786126,156.29492410820873,20.822017320616418,20.822017320616425,200.29504404170265
303.9306358381503,157.07063199582197,20.48412693537817,20.484126935378175,200.6698505725667
304.5664739884393,157.2163900898773,20.713912870868693,20.71391287086869,200.57884042793845
305.2023121387283,156.0140277301197,20.909683522890795,20.909683522890795,199.11515429269915
305.83815028901734,156.96241721035284,20.335913803105385,20.335913803105385,199.53243287598443
306.47398843930637,157.1692889242369,20.801123253349875,20.80112325334987,200.43533349203202
307.1098265895954,156.84891507392297,20.26408302864107,20.264083028641068,200.48484839577597
307.7456647398844,156.86126737824043,20.163691342481048,20.163691342481044,201.17622656613858
308.3815028901734,156.4854129506267,20.71293927615927,20.71293927615927,200.23986767493187
309.01734104046244,156.83342934572286,20.4612825414572,20.4612825414572,199.92638617635507
309.6531791907515,157.10728577621177,19.277241941198398,19.277241941198398,202.248006966701
310.28901734104045,156.32574278091397,20.719960358527196,20.719960358527196,200.32891940786132
310.9248554913295,156.2820248506908,20.375266770920785,20.375266770920785,199.3982534141395
311.5606936416185,157.68700367401266,20.031332648617635,20.031332648617635,198.82046608066673
312.19653179190755,157.13726070246952,20.635236908904304,20.635236908904304,199.86148891026582
312.8323699421965,157.5645903210514,19.70847097574757,19.70847097574757,201.36676810261025
313.46820809248555,157.1859082547108,20.133259621670845,20.13325962167084,199.873105301633
314.1040462427746,157.9497769760437,20.37383367353799,20.373833673537995,199.3325822706078
314.7398843930636,157.70612455570765,20.378321799717302,20.378321799717302,200.2676842742399
315.3757225433526,158.07876071919767,20.066255851621207,20.066255851621207,199.0915586815251
316.0115606936416,157.7899086685679,20.291578857659616,20.291578857659616,199.7222391767184
316.64739884393066,157.45366194270346,20.315602950878873,20.31560295087887,200.30206459973417
317.28323699421964,157.6400764785377,19.958830327771167,19.958830327771167,200.32823941756718
317.91907514450867,158.88328676335786,20.520428256371314,20.520428256371314,200.87680405713604
318.5549132947977,158.9796523122205,20.50500408279689,20.50500408279689,200.52941619892093
319.19075144508673,158.27544111031045,20.54305800611082,20.54305800611082,200.3010086458355
319.8265895953757,157.86017876184786,20.052167235989817,20.05216723598981,199.7803162482182
320.46242774566474,159.08210231853315,20.24766724191174,20.24766724191174,199.0398429224754
321.0982658959538,158.940887104321,20.187073340374823,20.187073340374823,199.02132552847502
321.7341040462428,158.23748998188256,20.124895933638275,20.124895933638275,200.05164198307074
322.3699421965318,159.48981996988462,20.47138598357252,20.47138598357252,199.89601168754749
323.0057803468208,158.71664746972314,19.92740933304718,19.92740933304718,199.3406174156866
323.64161849710985,158.6283492229279,19.805515115050117,19.805515115050117,199.70469914668308
324.2774566473989,159.67161082246162,20.220136412710985,20.220136412710985,198.9925001694314
324.91329479768785,159.17351552276597,20.23332028861338,20.233320288613374,199.36537961314278
325.5491329479769,159.17783017368427,19.996119833519955,19.996119833519952,199.82339876403665
326.1849710982659,159.22613849699258,20.4024062797648,20.402406279764808,199.85480508561483
326.8208092485549,159.47513501486867,20.098043415979514,20.098043415979514,200.74981660181143
327.4566473988439,159.49543752252345,20.054185178154174,20.054185178154174,199.72120410434346
328.09248554913296,160.39486478400732,20.013475046144407,20.013475046144407,199.47456053569016
328.728323699422,160.21319646479867,19.976808850949332,19.976808850949332,198.92074907135424
329.36416184971097,159.7683647449684,20.03974273939739,20.039742739397393,199.68023309684054
330.0,159.68977812386302,19.703813309894386,19.703813309894386,199.9413642408417
330.63583815028903,160.05121042513957,19.79188622180132,19.791886221801317,199.22783387528253
331.27167630057806,160.18586137166352,19.656341889117172,19.656341889117172,199.68954612302954
331.90751445086704,159.75320821797766,19.926189543600195,19.926189543600202,199.04941209884726
332.5433526011561,160.59451241259816,19.936217512892803,19.936217512892803,199.78848878224105
333.1791907514451,161.2268966101929,19.405648436457717,19.40564843645771,199.6507090421334
333.81502890173414,165.46673751742264,18.813607937261157,18.813607937261157,199.04797493777207
334.4508670520231,165.5911794497076,18.993759392679603,18.9937593926796,197.46189356710946
335.08670520231215,165.9663445611689,19.198209643884386,19.198209643884375,198.25747373720694
335.7225433526012,165.6271837872633,19.020324712460695,19.020324712460695,199.26458083048252
336.35838150289015,165.35789627641972,18.611403627994306,18.611403627994306,198.79376873974803
336.9942196531792,165.45101716150714,19.082475855301965,19.082475855301965,199.22352402384044
337.6300578034682,165.7688202765099,18.528144832139695,18.528144832139688,198.71712142435587
338.26589595375725,166.40465820986697,18.780893528899437,18.780893528899437,198.80078290884722
338.9017341040462,166.46360007489145,18.403211915751942,18.403211915751942,198.12000549001536
339.53757225433526,166.2651710641162,18.701204652678506,18.701204652678506,198.8601671530429
340.1734104046243,166.21489214201293,18.46608872192008,18.46608872192008,198.27180601071015
340.8092485549133,166.31926611374357,18.633027594768997,18.633027594768997,197.38868612870672
341.4450867052023,166.21932994074558,18.553811478697014,18.55381147869701,198.8579993642499
342.08092485549133,165.259327998723,18.73559735648874,18.73559735648874,198.74150879867042
342.71676300578036,167.04151342573823,18.760051072253624,18.760051072253624,199.26926645318017
343.3526011560694,166.9985059464349,18.68449131350154,18.68449131350154,199.05096716760653
343.9884393063584,167.2572808886974,18.431615362417013,18.431615362417016,198.63547594895255
344.6242774566474,167.08759705845495,18.544262220943352,18.54426222094336,198.8679308249407
345.26011560693644,167.65622978558304,18.444410472732642,18.444410472732642,199.31958473250842
345.89595375722547,167.3668285787932,18.315789025692528,18.315789025692528,199.39419796524155
346.53179190751445,167.60458058632082,18.583964600673546,18.583964600673553,199.35879812157387
347.1676300578035,168.69041101384101,18.185280080390328,18.18528008039032,198.80036350955524
347.8034682080925,168.0156507091225,18.380106145879374,18.380106145879374,198.94903545335106
348.4393063583815,166.98619163488345,18.420827894768856,18.420827894768863,198.3916044836495
349.0751445086705,167.15665843353617,18.239070303351816,18.239070303351816,197.87254726989931
349.71098265895955,167.28439392600933,18.0993525989074,18.099352598907394,198.12700812913434
350.3468208092486,168.06101377658896,18.3027500767459,18.302750076745905,198.2458112228442
350.98265895953756,168.50385008420534,18.67815007507136,18.67815007507136,198.85650265172617
351.6184971098266,168.51252586478685,18.781759395725842,18.781759395725842,198.5523901405237
352.2543352601156,168.60359339471464,18.676928014163046,18.676928014163042,199.03428928938482
352.89017341040466,168.79258592043172,18.284871968458056,18.284871968458056,198.58365137739213
353.52601156069363,168.23646244481398,18.311879036604815,18.311879036604815,198.35017563653426
354.16184971098266,168.60164056615255,18.37213102469683,18.372131024696834,199.3658521024049
354.7976878612717,169.228230234845,17.723979382685872,17.723979382685872,197.88623938594216
355.43352601156073,169.93935709108322,18.001492908505337,18.001492908505337,197.94939206303067
356.0693641618497,168.96354335203338,18.07128634021604,18.07128634021604,198.58231422149015
356.70520231213874,169.80036767359329,18.261711490340048,18.261711490340048,198.2600382415058
357.34104046242777,169.260343697167,17.95289825104726,17.952898251047255,198.92255457741263
357.97687861271675,170.10854944300405,17.95170669679416,17.95170669679416,198.4601365131785
358.6127167630058,169.8039056061717,17.765269211882337,17.76526921188233,198.83827696057193
359.2485549132948,169.4112323622265,18.066513922163782,18.066513922163782,199.62130542593258
359.88439306358384,170.25916546148625,17.40869392188986,17.408693921889853,199.0742042984927
360.5202312138728,170.84083188727882,17.662691180558284,17.662691180558284,198.69557707943062
361.15606936416185,170.10557669557858,17.452905694431337,17.452905694431337,198.61671505823543
361.7919075144509,170.38693200083904,17.655943029193388,17.655943029193388,199.0961887343303
362.4277456647399,170.5697404122744,17.86428816078689,17.86428816078689,199.17266500534436
363.0635838150289,170.77104774358,17.63467896217732,17.63467896217732,198.39523502149183
363.6994219653179,171.11130630488478,17.787272834202394,17.787272834202398,198.9868170857904
364.33526011560696,170.2506935932241,17.90237477939474,17.90237477939474,199.39414154066398
364.971098265896,171.65647597686726,17.789628220250457,17.789628220250457,198.89735557991912
365.60693641618496,171.01982488044155,17.6684415851787,17.668441585178698,198.74672201097684
366.242774566474,171.1614984163832,17.275314127131505,17.275314127131505,197.7647013860576
366.87861271676303,171.55823768101422,17.50666385885385,17.506663858853855,197.69081566337078
367.514450867052,171.82474158851156,17.442119831163133,17.442119831163133,198.77906031829158
368.15028901734104,171.44162745671744,17.82806687034409,17.82806687034409,199.12308816559982
368.78612716763007,171.6065475410991,17.542663882219234,17.542663882219234,197.91097560063952
369.4219653179191,171.7845305574875,17.812255939890832,17.812255939890832,198.53978353215638
370.0578034682081,172.1902049951921,17.308611605975926,17.308611605975923,198.44095108714663
370.6936416184971,172.0535557111342,17.25319569366761,17.253195693667607,198.43539674850047
371.32947976878614,172.33157771624164,17.35470890490786,17.35470890490786,199.17735944718393
371.9653179190752,172.94006761123129,17.66890047994174,17.66890047994174,198.87220330378904
372.60115606936415,173.22010062505677,16.8098577096095,16.8098577096095,198.54445492814034
373.2369942196532,172.47707613383395,17.104022168141736,17.10402216814173,198.59915433183124
373.8728323699422,173.34159819274137,17.466458223793346,17.46645822379335,198.83496776650384
374.50867052023125,172.15703858889515,17.500811713471403,17.500811713471403,198.53731245270097
375.1445086705202,172.8872954746595,17.138944343728266,17.13894434372827,198.6240070842654
375.78034682080926,172.73852012289476,16.98323490621985,16.98323490621985,198.812779865723
376.4161849710983,172.23297924504027,17.355541069796836,17.355541069796836,197.69745636207563
377.05202312138726,172.75156420641636,17.6589555458976,17.6589555458976,199.75007108979958
377.6878612716763,173.2080184675437,17.644980570922613,17.64498057092261,198.866562950351
378.32369942196533,173.8264850753504,17.422579598726443,17.42257959872644,199.53947047152337
378.95953757225436,173.3053019745279,17.28189327467131,17.28189327467131,198.78007005438872
379.59537572254334,173.43091073423895,17.167601006346267,17.167601006346267,199.7546676519757
380.23121387283237,174.13865519260807,17.204801620385382,17.204801620385382,198.70250342211895
380.8670520231214,175.03166618249293,17.000389986629667,17.000389986629663,199.41368453171359
381.50289017341044,175.05758133092513,16.853414759096808,16.853414759096808,198.509034872736
382.1387283236994,174.7196743687218,17.042270597382885,17.042270597382885,198.66450513055364
382.77456647398844,174.0702910237105,16.910685795759203,16.910685795759207,198.9399775557985
383.4104046242775,174.67517949144386,16.879662664259875,16.879662664259875,199.42530090473636
384.0462427745665,174.82364711890114,16.775394275867736,16.775394275867747,197.93182641124517
384.6820809248555,174.90224431737215,16.684837369143164,16.68483736914316,198.83120917033108
385.3179190751445,174.34475251516352,17.080525990895325,17.080525990895325,198.76836727091862
385.95375722543355,175.20035602736064,17.25150625036784,17.25150625036784,198.41967868891692
386.5895953757225,175.62275068880123,16.981994454952776,16.98199445495278,198.74966422651784
387.22543352601156,175.39969088838438,17.17780021514747,17.17780021514747,199.96567400876427
387.8612716763006,175.59638074923342,17.143498892891028,17.143498892891024,198.92241765085026
388.4971098265896,175.7980410321007,16.789850075077684,16.789850075077684,197.87585605512115
389.1329479768786,176.64370740870484,16.752574795269602,16.752574795269602,198.09243095072614
389.76878612716763,176.39610533917894,16.659609661608744,16.659609661608748,198.58593320769856
390.40462427745666,176.6048053165686,17.188248753388542,17.188248753388542,199.42004600894904
391.0404624277457,176.13138351726536,16.464455875010582,16.464455875010582,198.8563844660336
391.67630057803467,176.3844181222952,16.656992973432995,16.656992973432995,198.85404387668103
392.3121387283237,176.40955692577157,16.587592641906625,16.587592641906618,199.56016406415011
392.94797687861274,176.60161567208831,16.50915667036847,16.50915667036847,198.48941172012726
393.58381502890177,176.00647898854174,16.887794117603665,16.88779411760367,198.62793870668847
394.21965317919074,176.98113659423674,16.768815718695173,16.768815718695173,198.62841580548152
394.8554913294798,177.22015495056016,16.74882075393473,16.748820753934723,198.92616705064327
395.4913294797688,176.30727577181273,16.857245519886337,16.857245519886344,198.58602325854838
396.12716763005784,176.71231987182648,16.322493740821823,16.32249374082183,198.9795984910077
396.7630057803468,176.9065591377823,16.41281643364215,16.41281643364215,198.70183892090137
397.39884393063585,176.4189846470998,16.72533729166221,16.72533729166221,199.93739407138526
398.0346820809249,177.2344831907337,16.671467139255608,16.671467139255608,198.47457236093118
398.67052023121386,177.24835245190323,16.730839985464065,16.730839985464065,198.42056680664427
399.3063583815029,176.33057715086537,16.493032338221287,16.493032338221287,199.00658659550874
399.9421965317919,177.23144929149035,16.493912797799513,16.493912797799513,197.5096342084229
400.57803468208095,177.39759723867513,16.656054265491253,16.656054265491253,198.01058535707256
401.21387283236993,178.33625726778308,16.28429900570699,16.28429900570699,198.53439186373987
401.84971098265896,177.62033175377837,16.43191083369227,16.431910833692267,198.71454452949789
402.485549132948,178.43896225613383,16.216323529660443,16.216323529660443,198.3040160552453
403.121387283237,178.8777894034686,16.41374668447525,16.41374668447525,199.17219894720336
403.757225433526,179.1169004188485,16.6569297173627,16.6569297173627,199.70162277415395
404.39306358381504,178.85350191592198,16.242400423981053,16.24240042398105,198.38969363175428
405.02890173410407,178.9035616191355,16.045816517729836,16.04581651772984,199.6504524947347
405.6647398843931,178.91005003037546,16.01903704769276,16.019037047692755,198.39427208110547
406.3005780346821,179.74820225950867,16.362923591666355,16.362923591666355,199.08244702147718
406.9364161849711,180.29252724195157,16.731197074742862,16.73119707474287,199.15187734218165
407.57225433526014,180.05764061500238,16.479557044239524,16.479557044239524,199.68816581288064
408.2080924855491,180.33068158414088,16.262084525130703,16.262084525130703,199.46300535410563
408.84393063583815,179.99908206199953,16.51446499979574,16.51446499979575,199.64653185908082
409.4797687861272,180.21234044977967,16.014369093737166,16.014369093737166,199.22558176323912
410.1156069364162,180.9036918131128,16.54636976305718,16.546369763057175,200.13460102627215
410.7514450867052,181.0195638258337,16.43644809335269,16.436448093352695,199.03558917499248
411.3872832369942,181.05991546382168,15.960341108788047,15.960341108788047,198.7600196404577
412.02312138728325,180.6157958301229,16.67956501976196,16.679565019761956,199.5307432520408
412.6589595375723,181.04111099585276,15.884604013960775,15.884604013960775,199.60527710035603
413.29479768786126,181.5243333064417,15.759820280872413,15.759820280872416,199.22706546625105
413.9306358381503,181.52850702580645,16.198452651940276,16.198452651940276,199.40615131574162
414.5664739884393,182.1310741762332,16.025533451719934,16.025533451719934,199.78242247076312
415.20231213872836,181.2526566415859,16.083358869858664,16.083358869858664,198.85253726281147
415.83815028901734,182.0148560136982,15.651861510684924,15.651861510684917,199.30520735211311
416.47398843930637,181.69419092906148,16.17316320998147,16.17316320998147,198.45898915377379
417.1098265895954,182.60848270335194,16.327993375166596,16.3279933751666,198.58681777243373
417.7456647398844,182.05142523024418,16.026854444795067,16.026854444795067,199.17621453200866
418.3815028901734,182.00294775016224,15.968804324663822,15.968804324663822,199.20331688325348
419.01734104046244,181.44987750021195,16.24932451478914,16.24932451478914,199.65422389045617
419.6531791907515,182.4237660489994,16.031663154241482,16.031663154241482,199.6890138293028
420.28901734104045,182.7680841078699,16.158738177807884,16.158738177807884,199.54439844519118
420.9248554913295,182.61646987567576,15.763825847905109,15.763825847905112,199.0079616449643
421.5606936416185,182.65773826547476,15.494365243277691,15.49436524327769,199.09627721876734
422.19653179190755,182.90188554149836,15.545918293199623,15.545918293199623,199.4228408103998
422.8323699421965,182.50181512991986,15.737960357588001,15.737960357588001,199.01172147250426
423.46820809248555,182.32677115031856,15.37890532792712,15.378905327927125,198.71171778314536
424.1040462427746,183.03622731236447,15.60233463544594,15.602334635445944,198.71045026064397
424.7398843930636,182.6978874946241,15.579818024772969,15.579818024772976,198.99811489304503
425.3757225433526,182.68565481634425,15.442246694710619,15.442246694710619,198.91268598768866
426.0115606936416,183.6431041239352,15.404167615459773,15.404167615459775,198.50583822229868
426.64739884393066,182.6126081059346,15.591252937479588,15.591252937479581,198.53771936054605
427.2832369942197,183.26077464443028,15.579950114507925,15.579950114507922,199.02318877271682
427.91907514450867,183.94156249502373,15.702263137728641,15.702263137728641,198.8825079614693
428.5549132947977,183.2279253873251,15.495500652334064,15.495500652334064,198.23224513683587
429.19075144508673,184.02769829024285,15.484434384786015,15.484434384786015,198.09826019802313
429.8265895953757,183.70750716251172,14.939016854891568,14.939016854891564,198.13426592835356
430.46242774566474,183.95518717810998,15.381519971059435,15.381519971059435,198.83507445897345
431.0982658959538,184.27307696685426,15.56140282532104,15.56140282532104,198.92942439689318
431.7341040462428,184.61468406811773,14.824937123211718,14.824937123211718,198.63099794298628
432.3699421965318,184.0297284521027,15.1077001941236,15.1077001941236,199.06172865078162
433.0057803468208,185.04813461009905,15.288509837120133,15.288509837120133,198.43422188350067
433.64161849710985,185.5771296680454,15.977382493453312,15.977382493453312,200.10923297445126
434.2774566473989,185.60861456649235,15.421862676970841,15.421862676970845,199.360283006802
434.91329479768785,185.05043671604278,15.21266353013788,15.21266353013788,198.66104829119817
435.5491329479769,185.69036658867356,15.27950455480732,15.27950455480732,199.19326277094012
436.1849710982659,186.30170773841652,15.270176971956824,15.270176971956824,200.13069443109455
436.82080924855495,185.81936248475046,15.44824048769926,15.44824048769926,197.7282724685888
437.4566473988439,184.91708373737106,15.061096542645393,15.061096542645393,197.89147602819767
438.09248554913296,185.57455079344732,15.143229626790168,15.143229626790168,199.160719739832
438.728323699422,185.95035906651927,15.576003508959525,15.576003508959522,198.46294505435858
439.36416184971097,185.93798959610763,15.059782378381591,15.059782378381595,199.31709880056545
440.0,186.65580180674445,15.021188117855381,15.021188117855381,199.16800251805708
440.63583815028903,186.07311133754033,15.117687617053154,15.117687617053155,199.50581366962234
441.27167630057806,186.28495135508376,14.993074227604772,14.993074227604772,198.09790828876945
441.90751445086704,185.47021282294293,15.072269123043956,15.072269123043956,199.75279153495342
442.5433526011561,186.4175255804368,15.231350693956399,15.231350693956395,198.30824562910277
443.1791907514451,186.05784351719942,15.33424451308247,15.33424451308247,198.69127548399987
443.81502890173414,186.84537174635355,14.982990515256311,14.982990515256311,198.65865731631337
444.4508670520231,186.47499461853803,14.816874545176098,14.816874545176098,199.1820587192152
445.08670520231215,187.2159943284483,14.796860233620421,14.796860233620414,199.49704272036976
445.7225433526012,187.69454104603625,14.984421235792995,14.984421235792997,198.37833046023775
446.3583815028902,187.86693010656091,15.069358302796173,15.069358302796177,199.03419124495682
446.9942196531792,188.06395657509117,14.977570047145424,14.977570047145413,198.64295419803395
447.6300578034682,187.3638169513239,15.058429350637036,15.058429350637038,198.31979770721446
448.26589595375725,187.74382944781794,15.204946426415827,15.204946426415827,198.73437626011767
448.9017341040462,188.39360441281093,14.711531071071029,14.711531071071029,198.89890522736573
449.53757225433526,188.88897661278963,14.509471226981782,14.509471226981786,198.6532691935384
450.1734104046243,188.6602694428968,14.936593581885399,14.936593581885399,199.26130597960537
450.8092485549133,188.32330218111912,14.989164705944834,14.989164705944837,199.7602285854467
451.4450867052023,187.79252713072844,14.744804563993831,14.744804563993831,199.22335585173948
452.08092485549133,188.8674788020924,14.241513703726135,14.241513703726133,198.68691639326389
452.71676300578036,189.05688790778032,14.425193566430668,14.42519356643067,199.59398609241524
453.3526011560694,189.52265506999282,14.879372579926104,14.879372579926104,199.47284400352171
453.9884393063584,189.7459148850932,14.837344642963862,14.837344642963865,198.44026709710496
454.6242774566474,189.22627150609944,14.558106585776612,14.558106585776615,199.10411360103012
455.26011560693644,189.9853620009839,14.760161660070192,14.760161660070187,199.07976651913512
455.89595375722547,189.69226562021086,14.807749437269932,14.807749437269932,199.56461340429922
456.53179190751445,190.00503617465822,14.29401720602217,14.29401720602217,199.31940679070098
457.1676300578035,189.3567408441686,14.702938831030046,14.702938831030046,199.03961191861865
457.8034682080925,189.63394197236371,14.616195967476987,14.616195967476987,199.41752152558018
458.4393063583815,190.34661484148563,14.753934815539376,14.753934815539376,199.36760046884365
459.0751445086705,189.6886949996621,14.218809576709724,14.218809576709722,200.19859924184107
459.71098265895955,189.38199722894834,14.344780082308173,14.344780082308173,199.69013663343117
460.3468208092486,190.62440802241764,14.144917373401437,14.144917373401437,198.9699459660174
460.98265895953756,190.37320840362324,14.126532032242125,14.126532032242125,199.21154238547973
461.6184971098266,190.20127111171368,14.100183223289717,14.100183223289717,199.00814940469107
462.2543352601156,192.26172672715003,14.24259435728771,14.242594357287713,199.84276910477357
462.89017341040466,191.75453866162167,14.460971223854864,14.460971223854864,199.59327194790527
463.52601156069363,191.72940384546214,14.006894863142367,14.006894863142364,199.50107482243234
464.16184971098266,191.72230204975983,14.103775164943427,14.103775164943428,198.60020752393677
464.7976878612717,191.10951878124317,14.25071131530453,14.250711315304535,199.20567771514007
465.43352601156073,192.05411642124076,14.279934141207743,14.279934141207741,198.84077694366414
466.0693641618497,191.71557813349398,14.109924948475047,14.109924948475049,199.5765655421484
466.70520231213874,192.16640474551727,14.003382105445603,14.0033821054456,199.72314895507265
467.34104046242777,191.20997467492006,14.120318384705536,14.120318384705536,199.41514684248602
467.97687861271675,192.0481526994394,14.263026164969071,14.263026164969073,199.1402549563764
468.6127167630058,192.15190934516158,14.166868983164544,14.166868983164541,199.23145373058736
469.2485549132948,191.53048653383937,14.189597497311466,14.189597497311471,198.6048804171096
469.88439306358384,192.51081082503248,14.009397543790707,14.009397543790707,198.82980004570996
470.5202312138728,192.3016424230336,13.44644333236811,13.44644333236811,197.9644355191829
471.15606936416185,192.9273672218012,14.141599609383093,14.141599609383093,198.95337026467686
471.7919075144509,191.9397420634593,14.16596376314009,14.16596376314009,198.65570817360594
472.4277456647399,192.89760988408514,14.21453438454803,14.214534384548033,198.65165699006405
473.0635838150289,192.92585382744917,14.192156940469435,14.192156940469435,199.40552559895534
473.6994219653179,192.41525708887076,14.220506197420358,14.220506197420358,199.56168375193312
474.33526011560696,192.57545479086917,13.965473730243634,13.965473730243634,198.88270126230051
474.971098265896,193.1826870124153,14.397112609265502,14.397112609265502,199.30402418729076
475.60693641618496,192.82300366633,13.921817383865932,13.921817383865939,198.4084623843186
476.242774566474,193.58985360518017,14.177703830378524,14.177703830378524,199.23656060382984
476.87861271676303,194.04637328685612,14.388265342718691,14.388265342718691,198.26909289464444
477.51445086705206,193.58659028224992,14.021898198455794,14.021898198455794,198.69010669160787
478.15028901734104,193.27546898951613,11.909839845334163,11.909839845334163,200.78517580728544
478.78612716763007,195.68557300966907,13.709350515005662,13.709350515005665,200.6069538908538
479.4219653179191,195.8895044481232,13.886778385281414,13.886778385281417,201.78389995397498
480.0578034682081,196.1959706893751,14.01276634757105,14.012766347571047,201.72497626152025
480.6936416184971,196.90808805027558,13.631456298273749,13.631456298273749,201.01556184151497
481.32947976878614,196.66448566886214,13.704713382814033,13.704713382814033,201.4934768275959
481.9653179190752,197.38051287928863,13.569839670793149,13.569839670793147,201.85763724730742
482.60115606936415,197.11576786772216,13.813950978960682,13.813950978960682,201.32735767493753
483.2369942196532,196.41528810859552,13.826576896091389,13.826576896091392,200.65310070980127
483.8728323699422,197.54319177883954,13.414872346915272,13.414872346915269,200.90636372838364
484.50867052023125,196.93001449280982,13.971177062930591,13.971177062930588,201.10511188534824
485.1445086705202,196.63135063225675,13.791441621963445,13.79144162196345,199.80029419946035
485.78034682080926,197.2813377982725,13.777149586659048,13.777149586659048,200.85370319891567
486.4161849710983,196.8408098820115,13.324873704449583,13.324873704449587,200.9283586503984
487.0520231213873,196.77200486587023,13.334446708021604,13.33444670802161,200.53016791413833
487.6878612716763,197.0352207500293,13.5343231772731,13.5343231772731,200.49510515376156
488.32369942196533,197.17690631888487,13.306485541245648,13.306485541245648,200.44510777884406
488.95953757225436,197.0382965961589,13.490979334381306,13.49097933438131,200.4045788964324
489.59537572254334,197.32745881299795,13.531214505671183,13.531214505671183,200.5739499923309
490.23121387283237,197.18948879238772,13.406558622053296,13.4065586220533,200.3103713244548
490.8670520231214,197.43767816738568,13.808154374248051,13.808154374248048,200.11101266537733
491.50289017341044,197.87558784846294,13.3674799756975,13.3674799756975,199.80941568213734
492.1387283236994,197.89170481505636,13.15279743201547,13.15279743201547,200.00885275992997
492.77456647398844,197.9315169747753,13.276680230037723,13.276680230037726,200.99590818091562
493.4104046242775,198.49092353288992,13.439475062793708,13.439475062793708,200.17785112212601
494.0462427745665,198.2170035777176,13.377247083150474,13.377247083150474,200.42904175355952
494.6820809248555,198.49334873299082,13.4992597679463,13.4992597679463,200.9553808631316
495.3179190751445,199.281996552513,13.54364886430895,13.54364886430895,200.66040047728225
495.95375722543355,199.17706211164605,13.251142073891838,13.251142073891838,200.3220711017624
496.5895953757226,198.9366387472919,13.759132062802632,13.759132062802632,201.3589956992931
497.22543352601156,199.09975245128123,13.497592872362684,13.497592872362686,200.90139814599075
497.8612716763006,199.7876327172206,13.272021577940402,13.272021577940404,201.19658992750462
498.4971098265896,199.76825477720965,13.428462066728239,13.428462066728232,200.59004345873527
499.1329479768786,199.47682528826311,13.0501789674433,13.050178967443296,199.92138205396782
499.76878612716763,199.67190945894427,13.273927897778622,13.273927897778625,200.5740836774537
500.40462427745666,200.08188613957284,13.324517711471223,13.324517711471225,200.9571880988504
501.0404624277457,200.1275081244902,13.521734376855205,13.52173437685521,200.70905091094414
501.67630057803467,199.84088834986173,12.800809639245438,12.800809639245436,201.28781004840317
502.3121387283237,201.05988318784952,13.241227178265143,13.241227178265143,200.3241897304193
502.94797687861274,200.58475394255055,13.094170540951579,13.094170540951579,200.68004732832304
503.58381502890177,200.8126301220913,13.093790130944539,13.093790130944535,200.4869868804211
504.21965317919074,200.18286231444185,13.094767173135207,13.094767173135207,200.53644632692672
504.8554913294798,200.88883547108554,12.89993693608997,12.899936936089972,200.2961026054175
505.4913294797688,200.81677231439332,13.255080066091036,13.25508006609104,200.32477380147844
506.12716763005784,200.61468348841805,13.15521179691751,13.155211796917502,201.8349512880436
506.7630057803468,200.9415463682002,12.79966003960592,12.799660039605925,200.8113159110714
507.39884393063585,201.14198826160157,12.62177566716794,12.621775667167936,201.52777659936345
508.0346820809249,200.91329393692135,12.783017153074457,12.783017153074457,200.33612003677644
508.6705202312139,201.70179809014732,12.805015310446246,12.805015310446246,201.02878465106662
509.3063583815029,202.06541635487886,12.742410088210493,12.742410088210493,201.10499769861653
509.9421965317919,201.04892188197618,12.704499565611616,12.704499565611616,201.31657690731228
510.57803468208095,201.9263898749098,12.581306995510174,12.581306995510177,200.45121597675077
511.21387283236993,201.68424249816633,12.957355768992402,12.957355768992398,201.13276928567672
511.84971098265896,201.99227765241972,13.173279356108221,13.173279356108221,200.7164246866268
512.485549132948,202.2475905173501,13.162664761752216,13.162664761752218,200.95629838052244
513.121387283237,201.92780875239183,12.656601785950258,12.656601785950256,200.62817291913373
513.7572254335261,202.08654317595247,12.824524724687638,12.824524724687638,201.42965174483055
514.3930635838151,202.3077421977963,12.740550071801314,12.740550071801314,200.52720180386495
515.028901734104,202.90713092012706,12.52072474740344,12.52072474740344,200.74117372212274
515.664739884393,202.608169300097,12.49137821531137,12.49137821531137,200.42747530460184
516.3005780346821,203.87230365350808,12.818795887693478,12.818795887693476,200.38591394517107
516.9364161849711,202.95078585065676,12.736263213061468,12.736263213061461,201.84445271274853
517.5722543352601,202.56302343525797,12.790675329088584,12.790675329088586,200.69692659100286
518.2080924855492,203.3517028803552,12.556630442478639,12.556630442478639,200.6560771977526
518.8439306358382,203.79108628801364,12.524434962060328,12.524434962060328,201.32032242011513
519.4797687861271,203.58956178945846,12.45897142515144,12.45897142515144,200.90949161202067
520.1156069364162,203.63537893120596,12.559608312331063,12.559608312331063,201.18381476396004
520.7514450867052,204.473437248009,12.437632769031884,12.437632769031884,201.5050165150642
521.3872832369942,203.77138580400737,12.61832605836442,12.618326058364419,200.45058742269302
522.0231213872833,203.94122829415588,12.669301632889495,12.669301632889495,201.01688182994138
522.6589595375723,203.5980226708576,13.008349321294247,13.008349321294247,201.79261487056144
523.2947976878613,203.74241356685584,12.247303810744798,12.247303810744798,200.99652686519366
523.9306358381504,204.6074355499311,12.242223627508421,12.242223627508421,202.37085811689568
524.5664739884393,204.40996890744483,11.897393299546808,11.897393299546804,201.0744236537565
525.2023121387283,205.0509979556438,12.486402274374038,12.486402274374035,200.45225639796053
525.8381502890173,205.3981509240729,11.654757784533684,11.65475778453369,202.76598527014974
526.4739884393064,205.54006924372004,12.14268732664273,12.142687326642733,202.90861339249827
527.1098265895954,206.86329988126053,12.539234411541507,12.539234411541509,202.97389218964324
527.7456647398844,206.30359199056923,12.20101797614172,12.20101797614172,203.60538940644776
528.3815028901735,207.5615407582838,12.413999535999773,12.413999535999773,203.3384846097836
529.0173410404625,207.0561214666653,12.154339699125806,12.154339699125806,202.3372440786576
529.6531791907514,207.96856757844432,11.55892423622982,11.558924236229823,203.98527584292736
530.2890173410404,209.22294436341969,12.06421727717855,12.064217277178548,203.79905677737756
530.9248554913295,208.97008762511112,11.508489950705023,11.508489950705023,206.2845581080591
531.5606936416185,208.75289540805224,12.171104562742913,12.171104562742913,204.7854734377492
532.1965317919075,209.1113393288448,11.533386278146088,11.533386278146086,204.33393454568764
532.8323699421966,208.82692774849787,11.743734836633974,11.743734836633976,204.50035029588804
533.4682080924856,210.43280035359135,11.94278655027365,11.942786550273649,205.07434743674946
534.1040462427745,209.7930715918972,11.747288930232425,11.747288930232427,204.76895332209287
534.7398843930636,209.52275246773328,11.766609351828846,11.766609351828844,205.20748617720795
535.3757225433526,209.3670539984362,11.86571528624138,11.865715286241379,205.13343391106332
536.0115606936416,209.9317585126272,11.949995440929348,11.949995440929348,204.53737802378276
536.6473988439307,209.9354950934136,11.79291697433435,11.79291697433435,204.6911695964958
537.2832369942197,210.10937399928025,11.671361587196213,11.671361587196218,204.6160920103607
537.9190751445087,210.6437688963344,11.798515818517366,11.798515818517366,204.36544804566338
538.5549132947978,209.8848586756458,11.632077149097078,11.632077149097075,204.47076508277357
539.1907514450867,210.90300314386675,11.829250744234466,11.829250744234466,204.9401069371137
539.8265895953757,210.03930612769886,11.723765089148968,11.723765089148971,205.34498214224422
540.4624277456647,210.63510565863305,11.864060360991015,11.864060360991017,205.23231532467437
541.0982658959538,210.94950178025545,11.909601385017185,11.909601385017186,205.12195575469093
541.7341040462428,211.0911543616609,11.804555972067142,11.804555972067137,205.76699626393614
542.3699421965318,211.13474412419706,11.345760967078608,11.34576096707861,204.34443298078662
543.0057803468209,210.77974508278612,11.622393811335261,11.622393811335263,205.77250819810084
543.6416184971098,210.9631164970556,11.624674469359842,11.624674469359842,205.31893203130284
544.2774566473988,211.47374573468775,11.663946038712995,11.663946038712995,204.68978732850118
544.9132947976879,212.0095339327699,11.583722412172568,11.583722412172564,205.7020376669128
545.5491329479769,211.4022187822314,11.718171612343511,11.718171612343511,206.04027414437894
546.1849710982659,212.29773779214335,11.669636132254832,11.669636132254835,204.08873534610916
546.820809248555,211.24547212270514,11.542949236954502,11.542949236954506,204.37259609259146
547.456647398844,211.91837286539632,11.552664550754775,11.552664550754773,205.20993089212993
548.092485549133,212.80711603949646,11.514700301993358,11.51470030199336,204.76618335275379
548.7283236994219,211.84853379903316,11.465099309845574,11.46509930984557,205.3410756845939
549.364161849711,212.22906254555264,11.347886803367949,11.34788680336795,205.55600392080922
550.0,211.94449113905802,11.253323366520249,11.253323366520249,205.4017097098359
550.635838150289,212.32546855019172,11.37950834779272,11.379508347792717,205.56080781106849
551.2716763005781,211.92907668510804,11.732790291313716,11.732790291313718,206.63966657020035
551.9075144508671,212.6872063964254,11.492145915321782,11.492145915321778,205.19736594756387
552.5433526011561,213.00345106091928,11.357247185845145,11.357247185845152,205.4854421506353
553.179190751445,212.75559216113973,11.298180156329167,11.29818015632917,206.08775663888332
553.8150289017341,213.4969657035085,11.086341496717308,11.08634149671731,205.98264985675902
554.4508670520231,213.3498421181844,10.982905924656073,10.982905924656073,204.7205365068788
555.0867052023121,213.2786999629878,11.055189174127586,11.055189174127586,205.50358738026742
555.7225433526012,214.01961837983723,11.272302051700443,11.272302051700438,205.98786308639237
556.3583815028902,213.62808925698977,11.278521493536397,11.2785214935364,205.82044651875975
556.9942196531792,213.96013626926353,11.277499473298146,11.277499473298144,206.30103791334702
557.6300578034683,214.92784173509764,10.620661275955635,10.620661275955634,206.01566575545087
558.2658959537572,214.47909180621332,11.012463055632573,11.012463055632569,206.16342058361334
558.9017341040462,214.49074787780262,10.792322674211203,10.7923226742112,206.4200043029899
559.5375722543353,214.64146031520363,10.829837152622645,10.829837152622641,206.20232664319425
560.1734104046243,214.62291580696092,11.224773710895683,11.224773710895683,205.74567638277506
560.8092485549133,214.7805764185987,10.706523472173009,10.706523472173009,206.03200146056994
561.4450867052024,214.95873531028676,10.80287291087471,10.80287291087471,206.3119706574264
562.0809248554914,214.57119505472562,11.056859844264997,11.056859844264997,206.11477941752034
562.7167630057803,214.88056287358987,10.908557538017606,10.908557538017604,206.17765676330157
563.3526011560693,215.4027488432602,10.377853305668722,10.37785330566872,205.4671044019179
563.9884393063584,215.18889073608028,10.83260981471284,10.832609814712843,205.68310868009345
564.6242774566474,216.2819030334764,10.687412384128375,10.687412384128377,205.42404180406106
565.2601156069364,215.0316356397849,10.869705362039964,10.869705362039964,205.84437712121806
565.8959537572255,216.331601264341,10.163981878713914,10.163981878713916,205.50340209688218
566.5317919075145,215.32208534391657,10.897927468242521,10.897927468242521,206.261816936904
567.1676300578035,216.0307828666967,10.871292436030824,10.871292436030824,206.68759183420656
567.8034682080925,216.2547675104575,10.92128613343592,10.921286133435919,207.1537250748149
568.4393063583815,216.57766101866108,11.268090774076285,11.268090774076285,206.82034006806273
569.0751445086705,216.16010801711903,11.025673772916155,11.025673772916152,206.14365763276732
569.7109826589596,216.34240063015645,11.0699284539185,11.069928453918502,206.8621210503462
570.3468208092486,216.6973040954719,10.614844836315575,10.614844836315578,206.06994714216304
570.9826589595376,216.20897431315652,10.645936793853638,10.645936793853638,206.7673003171372
571.6184971098266,217.1131871725556,10.748540666777641,10.748540666777643,205.49183789236668
572.2543352601156,216.19324316340493,10.79755046638271,10.797550466382708,205.2983034232815
572.8901734104046,216.56784253651688,10.93494657972959,10.934946579729594,205.79215006990327
573.5260115606936,216.6616132411338,10.676478665459774,10.676478665459777,206.2505150965473
574.1618497109827,221.06113229053972,7.04656884506961,7.04656884506961,206.50752200086674
574.7976878612717,217.1140184343743,10.998723811085345,10.998723811085343,207.04255063831806
575.4335260115607,217.0783922504358,10.71065347032136,10.71065347032136,206.25098193274465
576.0693641618498,217.45611559519486,10.741676618037975,10.741676618037976,205.63440350916355
576.7052023121388,217.31999397707764,11.110699940615142,11.110699940615145,206.52857512918442
577.3410404624277,217.79282859107505,11.126469419733843,11.126469419733843,206.35333170750226
577.9768786127167,217.88257889192806,10.573596535410644,10.573596535410644,206.88456757399052
578.6127167630058,218.1073560798404,10.369017380348362,10.369017380348359,207.13589114197822
579.2485549132948,218.6602319038988,10.591517714256264,10.591517714256264,206.88106995863464
579.8843930635838,218.37703133202606,10.448584096906599,10.448584096906599,206.0971136307662
580.5202312138729,218.60701676185673,10.45343507538739,10.45343507538739,205.7568220182442
581.1560693641619,219.00219224167796,10.230139047223311,10.230139047223311,205.8607060955907
581.7919075144508,218.72145186641853,10.664231290689111,10.664231290689116,206.4145469380249
582.4277456647399,218.80754907167568,10.588414739717042,10.588414739717042,206.4323237166181
583.0635838150289,219.15031245742742,10.440556644584172,10.440556644584172,206.44216901602823
583.6994219653179,219.2484134644918,10.477905056695294,10.477905056695294,205.67032854072988
584.335260115607,218.80167494396065,10.455476855324196,10.455476855324196,206.4469010533353
584.971098265896,219.16664913400203,10.675776759308011,10.675776759308011,205.69150647625574
585.606936416185,219.12574460307243,10.225624583873294,10.225624583873293,205.90303310408896
586.242774566474,219.1077916919307,10.462025746424265,10.462025746424263,205.849078961943
586.878612716763,219.3552551463834,10.508620482913427,10.508620482913429,206.1247333695384
587.514450867052,219.4864217087915,10.796772183788361,10.796772183788365,206.57417297277638
588.150289017341,219.6281571033288,10.24939813956807,10.249398139568068,206.34572776633485
588.7861271676301,219.4925053815416,10.672778262180763,10.672778262180763,206.76083710292372
589.4219653179191,220.20024161149504,10.704091652442413,10.704091652442411,207.08363835625386
590.0578034682081,219.95463520199084,10.407326625912969,10.407326625912965,206.31580919130263
590.6936416184972,220.34418772575876,10.50186541076339,10.501865410763392,206.24794802390895
591.3294797687861,220.7323104482855,10.282628960806548,10.282628960806543,205.97659254310472
591.9653179190751,220.84428495665168,10.644498800194082,10.644498800194086,206.87952543006662
592.6011560693642,220.72607282449684,10.57197355215396,10.57197355215396,206.2209207882463
593.2369942196532,220.86444088555683,9.878153126195146,9.878153126195143,207.84873513587982
593.8728323699422,220.06431138357775,9.766301945306761,9.766301945306761,208.3246149045869
594.5086705202312,221.44571380997837,10.327543710538514,10.327543710538512,206.4984989964617
595.1445086705203,221.35020549833658,10.11288059818301,10.112880598183013,207.41183113171863
595.7803468208093,221.32065213273913,9.932926014923318,9.932926014923318,207.1372207766427
596.4161849710982,221.37649629040462,9.988461388160658,9.98846138816066,207.08426690666735
597.0520231213873,220.88688568788515,9.54704777642537,9.54704777642537,207.06902491177414
597.6878612716763,222.19125205183815,9.784871743516069,9.78487174351607,207.32718317189682
598.3236994219653,222.62508914631172,9.409657739219192,9.409657739219192,207.77165818920048
598.9595375722544,221.97614252791672,9.91048955867714,9.910489558677137,206.61674993222655
599.5953757225434,221.96773238601259,9.849023800580436,9.849023800580436,206.64788018430696
600.2312138728324,221.52916301730303,9.591858996016043,9.591858996016043,206.82576047028041
600.8670520231213,222.33917478572076,10.513305450637507,10.513305450637505,206.82395951426224
601.5028901734104,222.38099088053576,9.837551168282367,9.837551168282364,206.81299759590343
602.1387283236994,222.07370972664202,9.848950023146418,9.848950023146418,206.4486751943759
602.7745664739884,222.04620881648472,10.43027409389114,10.430274093891137,207.16304578004727
603.4104046242775,221.92250129296391,9.94625559367005,9.946255593670054,207.46077681724213
604.0462427745665,222.94039824186078,9.887457336068096,9.887457336068096,207.6382441147112
604.6820809248555,222.71878747252214,10.262051919765083,10.262051919765087,207.13612072553101
605.3179190751446,223.13083022825128,10.067038945618936,10.067038945618938,207.718799700562
605.9537572254335,223.22562812812276,9.965147919028405,9.965147919028405,207.74858333213055
606.5895953757225,223.5831914523755,9.674100386139953,9.674100386139955,207.59197612792252
607.2254335260116,223.23276174736532,10.011186166384661,10.011186166384665,207.36226569900356
607.8612716763006,223.3222319247875,10.13583638249757,10.135836382497573,207.1366034840666
608.4971098265896,223.25867358687861,9.865251442055946,9.865251442055948,207.5321854753848
609.1329479768787,224.32476845094016,9.647706280386275,9.647706280386275,208.57194349399154
609.7687861271677,223.91382540651446,10.130119672321449,10.13011967232145,207.10038022197554
610.4046242774566,223.95175152125023,9.284954484671369,9.284954484671365,207.50254327404994
611.0404624277456,223.88110005589178,10.051142163475216,10.051142163475221,207.90451273415985
611.6763005780347,224.2034084970018,9.751781272329838,9.751781272329838,207.95862806870232
612.3121387283237,224.043717011425,10.214925357166418,10.214925357166418,208.03807067589813
612.9479768786127,223.31728254074199,9.688530246567122,9.688530246567122,207.62507817871165
613.5838150289018,223.9376817229877,9.57093350143239,9.570933501432389,208.24116677598568
614.2196531791908,224.39257121349243,9.817735676265603,9.817735676265599,208.0631632396396
614.8554913294798,224.4416664103824,9.749099796109919,9.74909979610992,207.61916910029714
615.4913294797688,224.29502303940353,9.81280527121947,9.81280527121947,208.06381942593674
616.1271676300578,224.53257009710433,9.17191160312767,9.171911603127667,207.01078050050674
616.7630057803468,224.74870398238397,9.846757936340289,9.846757936340289,207.61027492114738
617.3988439306358,225.49087026239462,9.054826111323584,9.054826111323584,208.01530392616047
618.0346820809249,225.22329687467044,9.106721298077902,9.106721298077902,207.99629991749944
618.6705202312139,225.89347386091367,9.241858298861318,9.241858298861318,208.38715825035106
619.306358381503,226.21775656123032,9.541810847097283,9.541810847097285,208.26752832237756
619.942196531792,226.71410432227728,9.283991593394827,9.28399159339483,208.52543802105885
620.5780346820809,225.93722618859985,9.372187769347274,9.372187769347274,208.2048535804443
621.2138728323699,225.66245791582415,9.266469122369362,9.266469122369363,208.77930254188877
621.849710982659,226.64661235718404,9.040052877572215,9.040052877572212,208.8915737972732
622.485549132948,226.18773527967852,9.198515461954369,9.198515461954367,209.06344984776175
623.121387283237,226.51529761168518,9.061909867187268,9.061909867187268,208.35112383585272
623.7572254335261,226.93067407860812,9.00936143624008,9.009361436240079,208.7344536025529
624.3930635838151,227.09399787372803,9.05001606221006,9.050016062210057,208.1863691726813
625.028901734104,226.80189276953715,9.33685413037561,9.336854130375611,209.74477377082266
625.664739884393,226.73718773292998,9.507370125047018,9.507370125047022,208.7892754631807
626.3005780346821,226.7152025097114,9.305667094216691,9.305667094216691,208.52179216885503
626.9364161849711,227.09433713567876,9.455769039194914,9.455769039194914,209.00995866832653
627.5722543352601,227.5334057413664,9.316007823276994,9.31600782327699,208.35845959649734
628.2080924855492,226.94364781405318,9.365859957925952,9.365859957925952,208.2971951868935
628.8439306358382,226.63631774332148,9.318032660250227,9.318032660250227,208.9105143193371
629.4797687861272,227.2932038463233,9.476907062186298,9.476907062186298,208.23349916900747
630.1156069364162,227.10736056986008,9.39380764782253,9.39380764782253,208.9635749794957
630.7514450867052,227.09807170407973,9.305130906357174,9.305130906357174,208.1412347157229
631.3872832369942,227.09550701336835,9.074545024930035,9.074545024930039,208.26181662501727
632.0231213872833,227.87752023888265,9.406370397833399,9.406370397833399,207.68751931982163
632.6589595375723,227.87531419228736,8.71228046377147,8.71228046377147,208.1471208210041
633.2947976878613,227.94628254972125,8.859314142571153,8.859314142571156,209.68051128920007
633.9306358381504,227.50135645521948,8.989434569364578,8.989434569364576,209.11860333760652
634.5664739884393,228.17447182974166,9.250238640518996,9.250238640518994,209.0021047909301
635.2023121387283,228.3683992913461,9.344723371742013,9.344723371742013,208.56884023128242
635.8381502890173,228.5296866497508,8.99515262625518,8.995152626255184,208.32875015763486
636.4739884393064,228.1779103323108,9.258128212784655,9.258128212784655,208.75972835493266
637.1098265895954,228.35253998671197,9.139647642271601,9.139647642271601,208.77681063339085
637.7456647398844,228.42906353328354,9.21405935956681,9.21405935956681,208.61766913717292
638.3815028901735,228.5394065133852,9.151442889257595,9.151442889257599,209.91040435310882
639.0173410404625,228.69161775965244,9.035896563648313,9.03589656364831,208.86413589476658
639.6531791907514,228.719876085257,9.296952553950664,9.296952553950664,208.89495332180664
640.2890173410404,228.53452922685682,9.018636721693422,9.018636721693419,210.1868519003073
640.9248554913295,228.32923288552809,8.870223321279909,8.870223321279909,208.7327046190799
641.5606936416185,228.86692527924026,8.786964954360583,8.786964954360583,209.5708411377465
642.1965317919075,229.37585371726234,8.846669831369464,8.846669831369464,209.33747729680448
642.8323699421966,229.2020539861785,9.043218303760638,9.043218303760638,209.09303915683572
643.4682080924856,229.32280608053244,8.538605298202375,8.538605298202373,209.8427678329129
644.1040462427745,229.68957241584394,9.08725705295117,9.08725705295117,209.4789429456152
644.7398843930636,229.15791407382238,9.026102276720438,9.026102276720438,209.25129065242837
645.3757225433526,229.78615407110595,8.80542322028291,8.80542322028291,209.20388711404618
646.0115606936416,229.92580616376878,8.556840853712975,8.556840853712975,209.29487631182513
646.6473988439307,229.68279275992998,9.116938531987746,9.11693853198774,209.434802209437
647.2832369942197,229.6039687125519,8.881833693900472,8.881833693900472,209.1163933486138
647.9190751445087,230.21014100439905,9.129077997896587,9.129077997896587,208.65071876164077
648.5549132947978,230.03494141032058,8.921574413195252,8.921574413195252,208.86113012147447
649.1907514450867,230.53625779421833,9.04264736965357,9.042647369653572,209.72629436496428
649.8265895953757,230.73977477554982,8.532997113190456,8.532997113190456,208.46856504518308
650.4624277456647,231.513969775953,8.643051876294699,8.643051876294702,210.32727475734688
651.0982658959538,231.57381526637425,8.677128944172619,8.67712894417262,210.3511642329454
651.7341040462428,231.43701612943758,8.803244058817958,8.803244058817958,210.50586770466404
652.3699421965318,231.58142617300544,8.38106625413993,8.381066254139927,210.5437886488362
653.0057803468209,232.4064686351017,8.206071316280294,8.206071316280296,210.2848506404376
653.6416184971098,231.73707303243611,8.651398820986545,8.651398820986543,210.4010111395856
654.2774566473988,232.3049058434297,8.447815347404589,8.447815347404589,211.1505725171699
654.9132947976879,231.6979653536101,8.638112324645782,8.638112324645778,210.13165289115574
655.5491329479769,232.40830916886537,8.711227167385205,8.711227167385207,210.71339070814568
656.1849710982659,232.3417193831295,8.884988470124371,8.884988470124371,210.6917474704728
656.820809248555,232.26244912544942,8.339799621479223,8.339799621479223,211.87933551878257
657.456647398844,232.60732802500615,8.478289352555334,8.478289352555338,210.75143999024294
658.092485549133,232.5302633634853,8.275937762223245,8.275937762223245,210.92886506376632
658.7283236994219,231.63664494180614,8.479405009225381,8.479405009225381,210.74183784698192
659.364161849711,231.72452962846145,8.131012254574754,8.131012254574754,211.5712857320327
660.0,232.91741803785237,8.194677900380919,8.194677900380919,211.11694166839317
