z in mm,sigma xx in mm2,sigma xy in mm2,ysigma yx in mm2,sigma yy in mm2
660.0,216.1246865385884,9.895271570584748,9.895271570584745,192.19069640948211
659.3598448108633,214.9060493174523,9.33790206015197,9.337902060151974,193.53739697592974
658.7196896217265,214.92742740222172,9.964354920293909,9.964354920293909,192.21060326896193
658.0795344325898,215.10440775392692,10.047210730124878,10.047210730124878,193.0295882218866
657.439379243453,214.4402612817709,10.032173055081948,10.03217305508195,193.36188206706072
656.7992240543161,214.74615577988283,10.395864527451423,10.395864527451426,192.89490069060682
656.1590688651794,216.10742383290324,10.256783865909355,10.256783865909355,192.7064238610901
655.5189136760426,215.71711058866913,10.579793826160842,10.579793826160842,192.4486526788969
654.8787584869059,215.64507585428606,10.06691207238002,10.06691207238002,193.18075179657248
654.2386032977691,215.46720245662542,10.333846020585115,10.333846020585108,193.28217741091623
653.5984481086324,216.18151234536913,9.63085136561148,9.630851365611482,193.0454022542683
652.9582929194956,215.2635028038905,9.73663148148386,9.73663148148386,193.11247600844672
652.3181377303589,214.6336776621243,10.38307809004314,10.38307809004314,193.55266308719757
651.6779825412221,215.9804627347471,9.741845617412581,9.741845617412583,196.49648136339476
651.0378273520854,216.67789220799892,9.985096194207415,9.985096194207417,194.68821987840326
650.3976721629485,216.44493978735858,9.850111839251989,9.850111839251989,193.64323202051602
649.7575169738118,215.63715928070425,9.818913848855155,9.818913848855155,194.59874194804974
649.117361784675,216.21744291054264,9.44589269734743,9.445892697347434,194.50402984265233
648.4772065955383,217.16033719165196,9.897307569539976,9.89730756953998,194.88070783495075
647.8370514064015,217.3888045220715,9.532401618144544,9.532401618144544,195.28107776871255
647.1968962172648,216.5091902281944,8.913336409033176,8.913336409033176,195.7491128537996
646.556741028128,217.12315711211622,9.438371976245696,9.438371976245692,194.22953961296648
645.9165858389913,217.93336549714115,9.642242367993314,9.642242367993314,195.47272735778253
645.2764306498545,217.89936688030105,9.47782400850999,9.47782400850999,195.31804030461512
644.6362754607178,217.91552885728706,9.903414530230721,9.903414530230721,195.58164018336242
643.996120271581,217.52544813032134,9.305951365287825,9.305951365287829,196.4563962777498
643.3559650824442,217.18725778562302,8.811261713050687,8.811261713050685,195.52052110144976
642.7158098933074,217.89236319281127,9.67001159631809,9.670011596318094,196.44634756417688
642.0756547041707,218.13067751943,9.454813223976927,9.454813223976926,196.29731386358736
641.4354995150339,217.09158009587495,9.175741527564124,9.175741527564124,197.11512767644072
640.7953443258972,218.33693056536657,9.024536609290431,9.024536609290424,196.54668497916745
640.1551891367604,218.1846529316695,9.01199464181565,9.011994641815656,197.06174626269544
639.5150339476237,218.6666864994907,8.914802676947984,8.914802676947984,196.72973196479947
638.874878758487,218.37372901871865,8.888253810891992,8.888253810891992,197.06758904755233
638.2347235693502,218.5004656142131,9.256953639813219,9.256953639813222,197.13179978076954
637.5945683802133,219.37709042509476,9.050637368838975,9.050637368838972,197.89161395093777
636.9544131910766,219.3074272524338,8.730411993892377,8.730411993892377,197.3261709901412
636.3142580019398,219.06292787365143,9.434870109381798,9.434870109381798,197.54976820851476
635.6741028128031,218.64520698365408,9.168505815368045,9.168505815368048,197.44005106791928
635.0339476236663,219.50376584975362,8.60942756896941,8.609427568969412,199.72237601277502
634.3937924345296,220.62139610222385,8.734170379745649,8.734170379745644,198.27349030427357
633.7536372453928,219.42051207237358,8.967486420199567,8.96748642019957,197.2487498171146
633.1134820562561,219.4911858667333,9.160427136486623,9.16042713648663,197.17876405037336
632.4733268671193,218.94587641252514,8.725667269438494,8.725667269438494,198.4166094680812
631.8331716779826,219.49557781674162,8.92455013842629,8.92455013842629,198.3207984401162
631.1930164888457,219.36535259127038,9.048783571066624,9.048783571066622,198.45458056505163
630.552861299709,219.41927894773818,8.532873912840154,8.532873912840158,198.8615937164294
629.9127061105722,219.45198841457122,8.663673387704701,8.663673387704701,197.51132071657165
629.2725509214355,220.03039733298888,8.790683689026807,8.79068368902681,198.23722632072003
628.6323957322987,219.12229325793382,8.575178287439355,8.575178287439355,198.14460309151818
627.992240543162,219.91724616710007,8.877495295550034,8.877495295550034,198.31322866373623
627.3520853540252,219.32544993523763,9.178953828556308,9.178953828556308,198.07980389860185
626.7119301648885,219.5685903790027,8.746557750611748,8.74655775061175,197.5120662149226
626.0717749757517,219.78444932902485,8.872329527602236,8.872329527602236,197.44804688667682
625.431619786615,220.00802357196102,8.631383749165517,8.631383749165519,198.96519539200708
624.7914645974781,219.85103849784747,8.81330447443284,8.813304474432838,198.0794941721904
624.1513094083414,220.03208986367616,8.75967958093451,8.759679580934508,197.96240977502535
623.5111542192046,220.35832438001484,8.739860571871596,8.7398605718716,197.87860876366028
622.8709990300679,219.51462224618564,8.81197265646107,8.811972656461075,197.91145784628264
622.2308438409311,219.76293424657206,9.54610712753312,9.546107127533116,196.90862084332835
621.5906886517944,220.0826440753924,8.444880766503461,8.44488076650346,198.26866166889343
620.9505334626576,219.08031864344537,9.092863387169778,9.092863387169782,197.54974361178878
620.3103782735209,219.71467699367176,8.062071923238701,8.062071923238701,197.20392321577023
619.6702230843841,219.47794630694068,8.472157644237084,8.472157644237088,198.00527550451412
619.0300678952474,219.8677891724421,8.30124857640208,8.301248576402076,198.38480631517263
618.3899127061105,220.49055571660747,8.604243385599194,8.604243385599194,197.40117661695348
617.7497575169738,220.43803176778528,8.770221481539272,8.770221481539275,198.0750078984703
617.109602327837,221.00022237142812,8.432315021749384,8.432315021749393,197.2482962466844
616.4694471387003,220.24551266757646,8.656222717797409,8.656222717797409,197.4124831453291
615.8292919495635,220.30610553850443,8.581520167846712,8.581520167846714,199.03857393155087
615.1891367604268,220.67190622955744,8.986749407481074,8.98674940748108,197.2137307504311
614.54898157129,220.09473448827075,8.318050823166962,8.318050823166965,197.64595658111116
613.9088263821533,220.46640954061573,9.409734466683815,9.409734466683817,198.13562152788154
613.2686711930165,220.81631404420682,8.29698962261448,8.296989622614474,198.08678512451843
612.6285160038798,221.20217446326055,8.306028528884404,8.306028528884408,198.04084601110597
611.9883608147429,220.1380759322745,8.03957535266245,8.039575352662451,198.65989823261097
611.3482056256062,219.70166985675132,8.471107094681752,8.471107094681752,197.9954342552433
610.7080504364694,220.20172457238104,8.336759101632806,8.33675910163281,198.97218241661915
610.0678952473327,220.76682763630558,8.704273316065697,8.704273316065699,198.71736792802557
609.4277400581959,220.76157235063783,8.789709100930892,8.789709100930901,198.49186963632118
608.7875848690592,221.56649949158322,7.664314849231059,7.664314849231055,200.4878697766344
608.1474296799224,222.3533243867889,8.10778629267387,8.107786292673863,200.76371451676218
607.5072744907857,221.79531750543504,8.286765072997992,8.286765072997992,201.87272958403415
606.8671193016489,222.85720519861493,7.908157041389707,7.908157041389703,201.90508161556502
606.2269641125122,222.15640484068874,8.254946225528752,8.254946225528752,199.76315323642726
605.5868089233753,221.7786294288557,8.527209665022617,8.527209665022617,199.70596457433675
604.9466537342386,221.43628538913524,8.047564794253535,8.047564794253532,200.90613377151328
604.3064985451018,221.7753631503395,8.071335915895801,8.071335915895801,200.0919299223724
603.6663433559651,222.5983605055693,8.260595923020581,8.260595923020585,199.92329875049856
603.0261881668283,222.0945696980073,8.132548269013952,8.132548269013952,200.34428937833783
602.3860329776916,222.23508825469048,8.30653680125176,8.306536801251761,201.35711072308905
601.7458777885548,222.70319361508047,9.073324517949294,9.073324517949294,200.24011996774834
601.1057225994181,222.75140474910506,8.333679306041496,8.333679306041494,200.971236419127
600.4655674102813,222.80336779176255,7.99116693297001,7.99116693297001,200.15002697790527
599.8254122211446,222.50479645201747,8.375280264542715,8.375280264542715,200.80479042551195
599.1852570320077,222.5473952688681,8.558229061757206,8.55822906175721,201.33799579985558
598.545101842871,222.7933611895731,8.051220912687354,8.051220912687354,199.42673114901066
597.9049466537342,222.62149463269571,8.598419942076289,8.598419942076292,201.4600908044698
597.2647914645975,222.27772571349072,7.953488867453372,7.953488867453372,200.9656016959964
596.6246362754607,222.70316771023192,8.79213945358271,8.792139453582706,201.18728624664496
595.984481086324,222.55955338386943,8.327424474987422,8.327424474987426,200.65159046242087
595.3443258971872,222.43877744550335,7.876150245771875,7.876150245771875,200.27213144251905
594.7041707080505,221.91096280301812,8.186351116518688,8.186351116518695,201.24249428467434
594.0640155189137,223.41214082034523,8.403348038979551,8.403348038979551,200.3299626182087
593.423860329777,222.15381797586744,8.417788215660163,8.417788215660163,200.46920204448259
592.7837051406402,222.48485234779056,8.620590218191692,8.620590218191692,200.5614361425307
592.1435499515034,222.71656027527553,8.32757075106194,8.32757075106194,200.32666935741278
591.5033947623666,222.28250980193562,8.38970089458375,8.38970089458375,200.08261518339611
590.8632395732299,222.20414908243438,8.667085280130426,8.66708528013043,199.98041170228632
590.2230843840931,222.18314665685625,8.59853580965782,8.59853580965782,200.5026068522814
589.5829291949564,222.32377114597213,8.359317046489501,8.359317046489497,200.41924065090032
588.9427740058196,222.60745905994608,8.271351576167909,8.271351576167909,200.24185911820445
588.3026188166829,222.99560960769458,8.472784774532716,8.472784774532716,200.24831363420213
587.6624636275461,222.40479464308268,8.35128936930168,8.351289369301677,200.65135166086438
587.0223084384093,222.16841204938098,8.325408840972855,8.325408840972857,200.32199717945448
586.3821532492725,222.56923297789953,8.056422090277845,8.056422090277845,199.91817043711043
585.7419980601358,222.28006428525524,8.28988231167012,8.28988231167012,200.1920414805287
585.101842870999,222.07407216143278,8.892554233719517,8.892554233719512,201.0680750660464
584.4616876818623,222.04035820246725,8.321977239596244,8.321977239596237,200.4700561231345
583.8215324927255,222.36370791798873,7.98297498552295,7.982974985522944,200.71579912011785
583.1813773035888,222.37513668351355,8.018607484503141,8.018607484503143,201.12289509251028
582.541222114452,222.60525431474653,8.175473242095094,8.17547324209509,200.68885796303502
581.9010669253153,222.23659029567742,8.221042826026773,8.221042826026771,200.70751521093354
581.2609117361785,222.80465431830024,8.427896979625869,8.427896979625867,200.23813817609718
580.6207565470418,222.41829082894816,8.32110181724234,8.321101817242342,200.56555970137254
579.9806013579049,221.96925999783716,7.802863816734038,7.802863816734038,200.5733983415612
579.3404461687682,221.64430153882248,8.301326105767526,8.301326105767524,199.49283521134365
578.7002909796314,222.25870436721323,8.220561115600947,8.220561115600947,199.633076571253
578.0601357904947,221.83256966931506,8.036018950686069,8.036018950686067,199.90558435036667
577.4199806013579,221.4645319515228,7.8631068458897975,7.863106845889794,200.2146652695466
576.7798254122212,222.21325687370876,8.688353355426512,8.688353355426509,200.61284085358204
576.1396702230844,221.93287259329256,8.226554053125053,8.226554053125055,200.09757446001439
575.4995150339477,222.89559463677418,8.313670346229749,8.313670346229747,200.1670793507882
574.8593598448109,222.34663089878813,8.271469340345256,8.271469340345252,200.83638694652657
574.219204655674,222.42826877885184,8.600779041713377,8.600779041713377,199.63707487465186
573.5790494665373,222.15317692666426,8.156771531710321,8.156771531710323,200.80973507447845
572.9388942774005,222.2509398232077,8.25758713678678,8.25758713678678,200.58030524639415
572.2987390882638,222.16062567785704,8.133736986488827,8.133736986488827,200.41603232234405
571.658583899127,222.42292040195534,8.451531971257799,8.451531971257802,199.9946331411806
571.0184287099903,221.4658621200817,8.771564136045418,8.771564136045418,200.43801899912484
570.3782735208536,221.8061602886767,8.226562215313077,8.226562215313075,201.39583073790013
569.7381183317168,221.95495175578998,8.20426022843804,8.20426022843804,201.12907014638083
569.09796314258,222.38473565706073,8.491093163975588,8.49109316397559,200.7996908155317
568.4578079534433,222.81334703991212,8.250434041541874,8.250434041541874,200.72489131698106
567.8176527643066,222.68426618552488,9.037956531845989,9.03795653184599,199.9891275399036
567.1774975751697,223.07521094825768,7.986778118691291,7.986778118691286,200.76368539334368
566.537342386033,222.67572424497143,8.18153986600621,8.181539866006212,201.88167710449918
565.8971871968962,223.15089783486275,7.569059411901455,7.569059411901458,201.45442020760836
565.2570320077594,223.2069566360262,8.230968146558022,8.230968146558018,199.65720925494182
564.6168768186227,222.83477010577994,8.168567151460826,8.168567151460826,200.34687861592178
563.976721629486,222.58109561852228,8.320440887353412,8.320440887353408,200.08286176086156
563.3365664403492,222.11054708177608,8.519848269148564,8.519848269148566,200.66310582756913
562.6964112512125,222.21538355398695,7.878797586353278,7.87879758635328,201.4963879156646
562.0562560620757,222.39342415982236,8.290624531683871,8.290624531683871,200.4034645218249
561.4161008729388,222.49012784993405,8.065571869664248,8.06557186966425,200.97039061088768
560.7759456838021,221.59664980599476,8.67255226596471,8.67255226596471,200.22775799656978
560.1357904946653,222.71629694068676,8.856783278273593,8.856783278273593,199.82264105112438
559.4956353055286,222.91809164651528,8.245602496945432,8.24560249694543,200.30920495520212
558.8554801163918,222.89641553413045,8.111174899440641,8.111174899440643,201.7407053988708
558.2153249272551,222.59273308469528,8.2043535389028,8.2043535389028,200.44559975548032
557.5751697381183,222.74317571279212,7.870311740322485,7.870311740322485,201.11991845641685
556.9350145489816,222.09870625802284,8.24200768828793,8.242007688287933,200.84689576146653
556.2948593598448,222.07429838168318,8.012658584882734,8.012658584882734,201.41797119757095
555.6547041707081,223.20031157606653,8.087613230045918,8.087613230045918,200.93404285695274
555.0145489815714,223.13600368064814,8.310204369466334,8.310204369466337,200.5085639862608
554.3743937924345,223.09336562921368,8.205874236906423,8.205874236906423,200.8108553218739
553.7342386032977,222.0181250663075,8.45847096234041,8.458470962340412,201.05385001175694
553.094083414161,223.0444150038153,8.37790510418473,8.377905104184734,201.45110953085396
552.4539282250242,222.65780417045053,8.359646499110601,8.359646499110601,200.4173150395746
551.8137730358875,222.41077805055056,8.478294600965278,8.478294600965278,201.70706830228016
551.1736178467507,222.8235453106373,8.420426808890202,8.420426808890204,200.40659471344668
550.533462657614,223.64121959323882,8.606099248667668,8.606099248667672,200.31009681503915
549.8933074684772,222.54324728558834,8.091543796187809,8.091543796187805,200.0487024302067
549.2531522793405,222.09296268070884,8.172899800504018,8.172899800504014,200.3060643774441
548.6129970902036,222.86909515618686,8.386546041755498,8.386546041755503,200.27397218534364
547.9728419010669,222.81978749090203,7.973420630649766,7.973420630649766,200.9176497166803
547.3326867119301,223.6910121953343,8.245627532830367,8.24562753283037,199.3669189409327
546.6925315227934,222.07860296249922,8.467810805007533,8.46781080500753,200.13646550957225
546.0523763336566,222.41196852392932,8.578490230539328,8.578490230539328,200.38428171087875
545.4122211445199,222.37969731316886,7.846603553136243,7.846603553136247,200.97283655473228
544.7720659553831,222.97328412630344,8.314894242520081,8.314894242520085,200.51529701207832
544.1319107662464,223.54271725258585,8.097790616032931,8.097790616032935,200.458422329872
543.4917555771096,223.38542097121302,7.9802100532945826,7.980210053294582,200.32924788511227
542.8516003879729,222.86762917775562,7.869978613479142,7.869978613479139,201.1084452110761
542.2114451988361,222.53301006890868,8.410777252761589,8.410777252761585,201.3412703051483
541.5712900096993,222.60726228577266,8.103769413871742,8.103769413871742,200.4026963659132
540.9311348205625,222.2272313236167,7.993463155464028,7.993463155464025,200.41069496018622
540.2909796314258,223.4578975726152,8.014064857264183,8.014064857264177,200.4945800265568
539.650824442289,224.08349900083536,8.283432868458586,8.283432868458581,201.48030362478235
539.0106692531523,222.80622643817347,7.859903145190711,7.859903145190711,200.58683594568365
538.3705140640155,222.73413461918796,7.904248259815699,7.904248259815699,200.40039856186397
537.7303588748788,222.8254123637456,8.05035144127163,8.050351441271633,201.0195225781298
537.090203685742,222.79465489167072,7.911962225436701,7.911962225436699,200.39355324499599
536.4500484966053,223.7947589939022,8.458838902257853,8.458838902257858,200.46743738535326
535.8098933074684,223.24906062412958,7.903453488300063,7.903453488300063,200.9591054173127
535.1697381183317,223.55394648461726,7.8367284581416525,7.836728458141646,200.705466835057
534.5295829291949,223.29372195042822,7.709482125943044,7.709482125943038,200.26536222120345
533.8894277400582,222.8464538535696,7.855817199940958,7.855817199940958,200.90062019997453
533.2492725509214,223.26793293187995,7.792516088433254,7.792516088433249,200.91544508751028
532.6091173617847,222.76856218930754,7.7608609726919475,7.760860972691954,201.19479778807573
531.9689621726479,223.09040825943163,7.764011978079623,7.764011978079616,201.7355913770275
531.3288069835112,223.38665318519682,7.9441267206146104,7.944126720614607,201.2104376203633
530.6886517943744,223.60829169758793,8.027661296025013,8.027661296025014,201.05364258743353
530.0484966052377,222.75023842924858,7.798074252651507,7.798074252651504,201.78802965361604
529.4083414161009,223.2809301763574,8.040899830975203,8.040899830975205,201.53324824917632
528.7681862269642,223.05406872528752,7.509104654724767,7.509104654724763,201.9204669372591
528.1280310378273,223.84402092630674,7.594291418133754,7.594291418133752,201.149761468081
527.4878758486906,223.45794418270066,7.823074959387382,7.823074959387382,200.8905899656684
526.8477206595538,223.72414278681623,7.601768692825685,7.601768692825681,200.67801560693894
526.2075654704171,223.01129272817377,7.629724689652639,7.629724689652642,201.0394193068606
525.5674102812803,223.33280316805272,7.804234470475441,7.804234470475444,200.84401814333296
524.9272550921436,222.5992656901939,7.532269112830532,7.532269112830528,200.7473011745449
524.2870999030068,223.6550628598536,8.07284955948907,8.072849559489068,200.70606786672553
523.64694471387,223.05992946927392,8.29544839307097,8.295448393070972,200.3139626535877
523.0067895247332,222.7490801157681,8.184148787732301,8.184148787732301,201.3659500169751
522.3666343355965,223.71274216038262,8.162329371053959,8.16232937105396,200.6313702490943
521.7264791464597,222.89186848727078,7.86331005390265,7.8633100539026515,199.77277374498667
521.086323957323,222.95673986705336,7.4136907708486275,7.413690770848634,200.79019864804945
520.4461687681862,223.42875356056345,7.915386606150603,7.915386606150603,201.9335751388797
519.8060135790495,224.2907822945173,7.620473251568707,7.620473251568707,201.170871166158
519.1658583899127,223.71870829722914,7.6627142573280835,7.66271425732808,201.4662506615896
518.525703200776,223.28094643167054,7.906736121636554,7.906736121636558,201.24592694265
517.8855480116392,223.4720088379155,8.036354581777887,8.03635458177788,201.06626939129282
517.2453928225025,223.1215004539856,8.033431275221147,8.033431275221146,201.53329460803036
516.6052376333657,223.43803353236132,7.766789200751747,7.76678920075175,201.77193552185992
515.9650824442289,222.98650773073484,8.12071626308184,8.12071626308184,201.03978616077896
515.3249272550921,222.9059980213104,7.868412617611089,7.8684126176110905,201.07812884988311
514.6847720659554,223.5060230580312,7.857718663783503,7.857718663783503,200.79075180672535
514.0446168768186,222.95458218100725,7.642557092347962,7.642557092347959,200.87940085837516
513.4044616876819,222.87528023422283,7.8077951514656325,7.8077951514656325,200.9637783373796
512.7643064985451,223.01642995536773,7.902421114405611,7.902421114405609,200.98421417071123
512.1241513094084,223.21192314438593,7.791819509259195,7.791819509259199,200.58392376405695
511.4839961202716,222.82749768991366,7.456964321573496,7.456964321573499,200.49978663612416
510.8438409311348,224.19247363863798,7.740653144910077,7.740653144910079,200.07133765144363
510.2036857419981,223.8411564408754,7.475238099260984,7.4752380992609835,200.90337604237843
509.56353055286127,223.35092129257558,7.7652823366740815,7.765282336674086,200.6570089875492
508.9233753637245,223.54475294998684,7.71245450053682,7.7124545005368175,200.66962182222017
508.28322017458777,223.83981731379941,7.723414237944981,7.723414237944981,200.825188327969
507.643064985451,223.53305887329668,7.908901103356426,7.908901103356426,201.05539500776584
507.00290979631427,223.2309887714002,8.187112938806383,8.187112938806383,200.2973171148329
506.3627546071775,223.9646994416185,7.774238759967681,7.7742387599676865,200.99184287901977
505.7225994180408,223.0791165434245,7.856093154900077,7.856093154900077,200.67979802618697
505.082444228904,222.84986980941468,7.862465336535317,7.862465336535317,200.70888251795995
504.4422890397672,222.91523302256914,7.553585729639775,7.55358572963977,200.84510262666984
503.80213385063047,222.99911460942852,8.13640017042681,8.136400170426812,200.71070808627147
503.16197866149366,223.0421373439051,7.86020881705765,7.860208817057644,200.26451840703038
502.5218234723569,222.92582869831668,7.769436028466491,7.76943602846649,201.09826188171238
501.88166828322016,222.2897376167519,7.897889490294498,7.8978894902945,199.90401891629895
501.2415130940834,222.8099006150306,7.663843081651529,7.663843081651531,199.9817789420389
500.60135790494667,223.7218983689338,7.765567354677824,7.765567354677821,200.48767669391682
499.9612027158099,222.42699574240734,7.832911415254068,7.832911415254065,201.03787517186356
499.32104752667317,223.5781837067395,7.934892346604255,7.934892346604258,200.61209723324544
498.6808923375364,222.30093765865644,8.014210388946195,8.014210388946193,200.6181397189785
498.0407371483996,222.77214028223855,7.938603088330073,7.938603088330073,200.5277024188366
497.40058195926287,222.79003417901114,7.682141467657206,7.682141467657203,200.21240064978537
496.76042677012606,223.44109837955807,8.072518542175635,8.072518542175638,200.05268075478062
496.1202715809893,222.58590783308955,8.183369977423183,8.183369977423183,200.52000473567696
495.48011639185256,223.47564300877764,7.858792030337199,7.8587920303372005,199.8231254984546
494.8399612027158,222.59051600912505,7.763579350161692,7.763579350161689,200.83659058253028
494.19980601357906,222.73649378813556,8.253969334227449,8.253969334227452,200.183453866785
493.5596508244423,222.87750171272228,7.764650640116727,7.76465064011673,201.10999599330097
492.91949563530557,222.75861035638908,7.626720196905891,7.6267201969058975,200.63907753945628
492.2793404461688,222.95149612663127,5.658388155141213,5.6583881551412185,200.5277957658493
491.639185257032,222.56324906843085,8.368695898477416,8.368695898477414,199.80187659777766
490.99903006789526,222.88520841788954,7.7627035547731555,7.762703554773149,199.62751516155606
490.35887487875846,222.6159366465213,8.08865684320343,8.08865684320343,199.65138140416332
489.7187196896217,222.42192504696357,7.6117345761712665,7.6117345761712665,200.17160213555502
489.07856450048496,223.2257418458738,8.038596602753346,8.038596602753346,200.64139512856357
488.4384093113482,222.57104763008027,7.615809741507835,7.6158097415078405,199.51769148781406
487.79825412221146,223.58709841285787,8.196255443163537,8.196255443163537,200.46894913054106
487.1580989330747,222.5317557567022,7.754142559160109,7.754142559160115,200.67635709464514
486.51794374393796,222.77327342864837,7.666501739315364,7.666501739315361,199.5322377428229
485.8777885548012,222.11312516850523,8.379156912630586,8.379156912630584,199.885479351258
485.2376333656644,223.00927043729394,8.407949665817362,8.407949665817362,200.24470923126316
484.59747817652766,222.79308110638374,7.898099998709383,7.898099998709383,199.74264524894795
483.95732298739085,222.29140860196856,7.556111709384079,7.556111709384079,200.13458250449187
483.3171677982541,223.0924545246315,7.697372489344599,7.697372489344604,200.21282300399224
482.67701260911736,222.83683782556864,7.449118603558774,7.449118603558774,199.5201073035551
482.0368574199806,222.72752626139228,7.848193632956623,7.848193632956626,199.24367269256854
481.39670223084386,222.81279576365174,7.67596579370665,7.675965793706647,199.66776735531687
480.7565470417071,222.57041486407556,7.902880469705398,7.9028804697054,199.10914351638968
480.11639185257036,223.4285648920905,7.725450925907301,7.725450925907299,200.05701805582325
479.4762366634336,223.22496816444527,7.615267834026968,7.615267834026972,199.90557968840918
478.8360814742968,222.37716908014013,7.770083680180697,7.770083680180701,200.81897800714083
478.19592628516006,222.76609370030437,8.080856698635374,8.08085669863537,199.82203214638795
477.55577109602325,222.43067519049765,8.363655361521218,8.363655361521221,200.3005193749222
476.9156159068865,223.26005354175896,7.994552050815206,7.994552050815197,199.8095291029044
476.27546071774975,222.59990121469946,7.837911346505258,7.837911346505258,199.99920909967307
475.635305528613,222.49091933723383,8.138780138597639,8.138780138597644,199.20904255083656
474.99515033947625,222.87881953859477,8.026965214777922,8.026965214777926,200.32547466676132
474.3549951503395,222.91474858286762,7.559539889056049,7.559539889056049,199.7893826883017
473.71483996120276,223.18732642624528,7.6350094082,7.635009408199997,199.72885589868636
473.074684772066,223.23250228684427,7.7576552103250975,7.757655210325099,200.41445708576424
472.4345295829292,222.16851407706832,8.029084495788888,8.029084495788885,200.33374501001614
471.79437439379245,221.7598654570036,7.686666685474108,7.686666685474108,201.84596240988958
471.15421920465565,222.50096014511558,7.801057840409534,7.8010578404095305,199.7407442206879
470.5140640155189,223.1022428059253,7.938713173106419,7.9387131731064216,199.87318637155008
469.87390882638215,222.54171091913892,7.616185560989061,7.616185560989059,200.90572389595815
469.2337536372454,222.94523953256473,7.536755866426999,7.536755866426999,200.83946897727455
468.59359844810865,223.42158915445398,7.811862660955396,7.811862660955396,200.41697360938056
467.9534432589719,223.24925622797863,7.650834168358106,7.650834168358103,200.19250417402668
467.31328806983515,223.44346756337922,8.014017816535448,8.014017816535446,199.63357558017694
466.67313288069835,223.26757904549714,7.67112191552215,7.671121915522155,199.77708819241982
466.0329776915616,223.12587858793742,7.930457516863105,7.9304575168631075,199.67555626379576
465.39282250242485,223.41714977257465,7.537638818763383,7.537638818763383,199.8840257767272
464.75266731328804,222.35984094591296,7.817378240295099,7.8173782402950955,200.3913533845569
464.1125121241513,222.5267196038133,7.475691763211965,7.475691763211965,200.87009577275606
463.47235693501455,222.57894553887212,7.741205254097065,7.741205254097063,198.19689512994984
462.8322017458778,222.28928101824954,7.852553337756342,7.852553337756345,200.64336200319158
462.19204655674105,222.4171395269508,7.969390260167622,7.969390260167623,199.44923723407223
461.5518913676043,222.9329096034066,7.8953873051302255,7.8953873051302255,199.49705153019718
460.91173617846755,222.64108186744693,8.00733936003544,8.007339360035441,200.38565671443902
460.27158098933074,222.71998952543004,7.549442527919153,7.5494425279191555,200.48220651598163
459.631425800194,223.35559004339348,8.235316304965458,8.23531630496546,199.96718407195817
458.99127061105725,223.12767855938654,8.012463964365235,8.012463964365237,200.09455344713433
458.35111542192044,223.21221927387182,7.949097471362697,7.949097471362697,200.23900963793454
457.7109602327837,223.17883742916555,8.08015775419688,8.080157754196886,200.3049950930193
457.07080504364694,222.8122700344498,8.009685235999536,8.009685235999537,200.09164532240996
456.4306498545102,222.84263288694632,7.99998018991206,7.999980189912063,201.1568722624179
455.79049466537344,223.53250118771163,7.583824841819949,7.583824841819951,199.83263323018244
455.1503394762367,222.60895451148355,7.703898026481289,7.703898026481289,200.50284357503864
454.51018428709995,222.66239392705626,7.654003421312432,7.65400342131243,199.7018522749692
453.87002909796314,223.13172409040791,7.889873201032073,7.889873201032068,200.1604594974864
453.2298739088264,223.73245771920082,8.066420335035863,8.06642033503586,199.4367147882533
452.58971871968964,222.78993732417018,7.911138160128267,7.911138160128263,199.47288694622043
451.94956353055284,222.72651385140105,7.955670821014125,7.955670821014127,199.54620097795885
451.3094083414161,222.65223947215554,7.701960785545417,7.701960785545414,199.77141224511695
450.66925315227934,222.49368259495543,7.505413791151834,7.505413791151824,200.31579784969833
450.0290979631426,222.74112104572328,7.832425397214806,7.832425397214815,200.40504571423614
449.38894277400584,223.23568000669007,7.723615395486714,7.723615395486717,198.7226466652494
448.7487875848691,222.7419180222011,7.874767706181025,7.874767706181028,199.9660687151216
448.10863239573234,222.973336913761,7.73530796029117,7.735307960291174,200.3950987063064
447.46847720659554,222.91513702310093,7.778157271081532,7.778157271081532,199.6151474287127
446.8283220174588,222.30068647828287,7.94291331884279,7.942913318842793,199.36265611072557
446.18816682832204,222.4175196528147,7.857902407401581,7.857902407401581,199.2827819597845
445.54801163918523,222.55046322627928,7.693864272904907,7.693864272904907,200.3163434623928
444.9078564500485,223.16690476661316,7.880693939400431,7.880693939400435,198.92028525401057
444.26770126091174,223.09007397424756,7.69517182522221,7.695171825222208,199.56414244503947
443.627546071775,222.3745198501958,7.979930102934141,7.9799301029341425,199.6653202998302
442.98739088263824,222.13306172281716,8.355263564084618,8.355263564084618,199.93840262944673
442.3472356935015,222.84690966295443,8.02951834641005,8.02951834641005,199.4320075650675
441.70708050436474,222.5180710782723,7.846587878210734,7.846587878210734,199.03628075338838
441.06692531522793,222.22136327849165,7.944470540271752,7.94447054027175,199.54165123311816
440.4267701260912,221.980412492927,8.153680295706147,8.153680295706147,199.4586366054463
439.78661493695444,222.93663563170685,7.517872485759792,7.517872485759789,199.5573164245429
439.14645974781763,221.46105588425075,7.916721857487293,7.91672185748729,198.60693251737737
438.5063045586809,220.88358855720145,7.765964378301516,7.765964378301513,198.30977253234613
437.86614936954413,221.67817230871944,7.862400049855465,7.862400049855467,198.91456969322363
437.2259941804074,221.17924131942237,8.31589437973732,8.315894379737312,198.2196008387893
436.58583899127063,222.41081058769353,8.063534985573053,8.063534985573057,198.80173748687326
435.9456838021339,221.47810489133536,7.545722541454732,7.545722541454732,198.73980253614343
435.30552861299714,221.58222958168622,8.23593747529175,8.235937475291749,198.1315478012093
434.66537342386033,220.77012724503868,8.177242346307438,8.177242346307436,198.0850349820968
434.0252182347236,221.78319931438162,8.112127760199618,8.112127760199618,198.9316656724125
433.38506304558683,221.89612313516042,8.086118952719373,8.086118952719373,197.54180014956665
432.74490785645,221.30878412375586,8.078456084215395,8.078456084215393,198.79571194071374
432.1047526673133,220.99275893228838,8.011110689031483,8.01111068903149,198.87539821518854
431.46459747817653,220.8861583851178,8.427865057557469,8.427865057557469,198.11616468132772
430.8244422890398,221.77087068000563,8.53624675479305,8.536246754793048,197.38634063617516
430.18428709990303,221.98674897492708,8.133713996168758,8.133713996168758,197.53562524575145
429.5441319107663,221.34770979131952,8.053957582671629,8.053957582671625,198.57648761995574
428.90397672162953,221.9281761352608,8.39485342562842,8.394853425628419,198.38671853232964
428.2638215324927,221.87176517612852,8.148965114252954,8.14896511425295,198.07570988437476
427.623666343356,220.96759930631436,8.551733907369231,8.55173390736923,198.64102504031675
426.98351115421923,220.9517691491768,8.187620190101837,8.187620190101837,198.5717834749177
426.3433559650824,221.51606310564645,8.23718413834331,8.237184138343311,199.06333871483002
425.7032007759457,221.279232218874,7.882698976316433,7.882698976316435,198.4114357972665
425.0630455868089,221.8511415671887,8.183628106535268,8.183628106535268,198.0004359410623
424.4228903976722,221.4866003570642,7.533607745658663,7.533607745658666,198.99660279162873
423.7827352085354,220.79056412674964,8.168247412788315,8.168247412788318,198.10769324907244
423.1425800193987,221.24048436002352,8.057839009976336,8.057839009976338,198.3194149869565
422.50242483026193,220.94801638114265,8.22795949475043,8.22795949475043,198.3824516051681
421.8622696411251,221.74787523632813,8.172435417297528,8.172435417297526,197.906399013006
421.2221144519884,221.0125733124479,8.197222151035366,8.197222151035362,198.8433619012242
420.5819592628516,221.4156272136759,8.088813908742544,8.088813908742544,197.65661182558875
419.9418040737148,221.12767206640297,8.308522574163106,8.308522574163112,199.0925404674858
419.30164888457807,220.95636796603225,8.293180740409722,8.293180740409719,198.29295744396273
418.6614936954413,221.06809415731942,7.812559992866189,7.812559992866187,198.73242656177388
418.0213385063046,220.97407423191729,8.231584799348758,8.231584799348761,198.279954196403
417.3811833171678,221.0908135990225,8.183339540667417,8.183339540667422,198.3845074823376
416.7410281280311,221.27813482908235,7.934753070915778,7.934753070915775,197.7535715684799
416.1008729388943,220.76499285244554,8.554846461545957,8.554846461545953,197.90992158086453
415.4607177497575,221.0273638142117,8.612697151131101,8.612697151131105,198.19906949758263
414.8205625606208,220.831874204012,8.194784918164814,8.194784918164816,198.29397143192534
414.180407371484,220.43165903693793,8.196158197166657,8.196158197166653,197.62949635254523
413.5402521823472,220.514975965439,7.798200388430136,7.79820038843013,198.36891126654263
412.90009699321047,220.34630482920525,8.4161585121885,8.416158512188503,198.46455501208828
412.2599418040737,220.22146385776696,8.346153466482647,8.346153466482647,197.57180856746183
411.61978661493697,221.00761596325185,8.339316458405332,8.339316458405332,198.5994363759614
410.9796314258002,220.93175317745997,8.21627111217102,8.216271112171016,197.8843893259126
410.3394762366635,221.4053302667442,8.575832519083484,8.575832519083487,197.85962800224405
409.6993210475267,220.61290304783498,8.311057366581514,8.311057366581508,197.232421015694
409.0591658583899,220.59562357931406,8.349686240689332,8.349686240689332,197.58310114603847
408.41901066925317,221.13297665390613,8.61696783618809,8.61696783618809,198.0390016576045
407.77885548011636,220.34664574635718,8.273459802248674,8.273459802248675,198.0432951130827
407.1387002909796,221.0578750951043,7.9724876467148444,7.972487646714841,197.7817525042958
406.49854510184286,220.85155546446828,8.281618039427295,8.281618039427292,197.0556763226029
405.8583899127061,220.9507919741556,8.150778538014652,8.150778538014652,197.11478266185924
405.21823472356937,220.6450923830144,8.485603699092334,8.485603699092339,197.7283799561438
404.5780795344326,220.52078448258322,8.189210584830064,8.189210584830064,197.7173038648543
403.93792434529587,220.30154498840682,8.121083020847134,8.121083020847134,197.64243812535116
403.29776915615906,220.13333868885076,8.553835798091574,8.553835798091573,197.67134933733544
402.6576139670223,220.22543614579405,8.610968241031198,8.610968241031195,196.83663346752263
402.01745877788557,219.78993455931885,8.418208754528969,8.418208754528967,197.87128007782695
401.3773035887488,220.46834810252955,8.29450725193161,8.294507251931613,196.62386331270565
400.73714839961207,220.2971779978866,8.188908524368488,8.188908524368486,196.4245649210877
400.09699321047526,219.95827044467765,8.142596332765384,8.14259633276538,196.66215926790719
399.4568380213385,220.33903649371072,8.019721837566756,8.019721837566756,196.490229195627
398.81668283220176,220.75655608293874,8.072752470675638,8.072752470675642,198.56828550939767
398.176527643065,220.26828526636285,8.164851336941291,8.164851336941291,197.6429665012573
397.53637245392827,220.2964232038596,8.006710021698947,8.006710021698945,197.71543661877195
396.89621726479146,219.84554467027274,8.281511339948182,8.281511339948182,197.24931455201104
396.2560620756547,220.48212252062254,8.355783060260421,8.355783060260421,198.03816298621504
395.61590688651796,220.76904120239672,8.072990821471429,8.072990821471429,196.6177131592256
394.9757516973812,220.53270942515184,8.231268734510849,8.23126873451085,197.429153754793
394.33559650824446,220.50103532949132,8.846429052910263,8.846429052910254,196.89126757728945
393.69544131910766,220.55577017755678,8.439789303762705,8.439789303762705,197.2144256509937
393.0552861299709,220.56721862605758,8.265103431639037,8.26510343163903,197.29242871100865
392.41513094083416,220.32824443302502,8.066650361904511,8.066650361904514,197.58224940658494
391.7749757516974,220.430625246926,8.19839117334322,8.198391173343222,197.38242165263082
391.13482056256066,220.2452826814887,8.586620531437738,8.586620531437736,197.3810410700886
390.49466537342386,220.30945611549916,7.958916960107498,7.958916960107501,197.64008400350323
389.8545101842871,220.44362363750795,7.922174586399377,7.922174586399377,196.41482950769728
389.21435499515036,220.28780392676742,8.542766191211578,8.542766191211589,197.1084767890766
388.5741998060136,220.3149904263838,8.644133610966053,8.64413361096606,197.11946707603516
387.93404461687686,220.9588227614184,7.9192590376608845,7.919259037660882,198.4382131580094
387.29388942774005,221.4874703483422,7.906018076530095,7.9060180765300965,197.74817385709622
386.6537342386033,221.21764707973034,8.100513260283467,8.100513260283464,197.89242065076272
386.01357904946656,221.26233963066193,8.086868750811597,8.086868750811597,198.17070269667377
385.3734238603298,220.47331183230256,8.208735442054312,8.208735442054312,197.81022500802172
384.733268671193,220.05511608038154,8.529035165649802,8.529035165649804,197.34609973855137
384.09311348205625,220.9580739586685,8.330448473553467,8.33044847355347,197.1321562071144
383.4529582929195,220.4526026435213,8.038673155951985,8.038673155951981,197.4054930824578
382.81280310378276,220.72762336040367,8.153014962837705,8.153014962837705,198.22006863085426
382.172647914646,220.17650997924275,8.247149115721058,8.247149115721063,198.21656180474358
381.5324927255092,219.55893107767542,8.248421083264143,8.248421083264146,197.8633112085568
380.89233753637245,219.842447218448,8.67775317750529,8.677753177505291,197.374696435202
380.2521823472357,220.18224049135412,8.363590315849828,8.363590315849827,196.38109091061804
379.61202715809895,219.92901392876263,8.147229034459993,8.147229034459999,196.99410644136887
378.9718719689622,219.92931074116564,8.812722919795304,8.812722919795299,196.45411063251626
378.3317167798254,219.99349287161454,8.022398185720762,8.022398185720762,196.98676636500892
377.69156159068865,219.79277543207792,8.356274951997774,8.356274951997772,196.87964761871885
377.0514064015519,219.24008103466426,8.514484702552807,8.514484702552807,197.57261026851967
376.41125121241515,219.52110831566534,8.63864736694289,8.638647366942887,197.47608759055245
375.7710960232784,219.48398897277727,8.605075310310534,8.60507531031054,197.07019883763414
375.1309408341416,219.66067069479453,8.199515424209487,8.199515424209492,196.6866146134072
374.49078564500485,219.25851323628856,8.247997091407049,8.247997091407047,197.34685181358395
373.8506304558681,219.67356389648148,8.254278002303474,8.254278002303469,197.24415852449715
373.21047526673135,220.15038374634196,7.960532474454868,7.960532474454863,197.50250426604643
372.5703200775946,219.85157949511577,8.265277368922494,8.265277368922497,196.77523099278633
371.9301648884578,219.67652447887576,8.526888207773395,8.526888207773386,197.75967162024776
371.29000969932105,219.94957085592162,8.721375107692923,8.72137510769292,197.56400801590814
370.6498545101843,219.23048278628747,8.611484915457707,8.6114849154577,195.87207094859963
370.00969932104755,219.29969805932555,8.572967704896895,8.572967704896891,197.2800840281076
369.3695441319108,219.4045386880204,8.487551686180383,8.487551686180385,196.4852825475933
368.729388942774,219.4728372986753,8.405594623619647,8.405594623619644,196.8108716177743
368.08923375363725,219.7731896099166,8.999826288448475,8.99982628844847,196.8549294072469
367.4490785645005,219.65239719817586,8.41152412736725,8.411524127367247,196.70315086560274
366.80892337536375,219.64849573173834,8.349464719871243,8.349464719871243,196.83170678492613
366.168768186227,219.56985738684375,8.968701167775533,8.968701167775532,196.87181078480484
365.5286129970902,219.83158885756131,9.089598431412771,9.089598431412771,196.9530031148844
364.88845780795344,219.5924378393669,8.629623149127827,8.629623149127825,195.5988642901646
364.2483026188167,219.04846260520827,8.672707842147991,8.672707842147982,196.12178806471226
363.60814742967995,219.16343649857404,8.233483986602227,8.233483986602224,196.77840707870254
362.9679922405432,220.00227410144007,8.619527477190104,8.619527477190104,196.94171659548243
362.3278370514064,218.35667237189904,8.53899849032981,8.538998490329815,196.89054764596037
361.68768186226964,219.47571467019245,8.662844762936954,8.662844762936954,196.17330650953673
361.0475266731329,218.96131056380773,8.742070864942876,8.742070864942876,196.95393821896513
360.40737148399614,218.69276040347103,8.60322716879029,8.60322716879029,196.5317120551004
359.7672162948594,218.66854692059536,8.928556910300161,8.928556910300165,196.27880222460155
359.1270611057226,219.11894220119612,9.046352585112313,9.046352585112315,197.07258171451977
358.48690591658584,218.62538934562363,8.813391755213223,8.813391755213221,195.80534196504647
357.8467507274491,219.0834811248719,8.58988991911759,8.58988991911759,196.06989662659197
357.20659553831234,219.068821165489,9.07756344679774,9.077563446797738,196.18536803650696
356.5664403491756,219.03035375140368,8.518724161018238,8.518724161018236,196.24255566929776
355.9262851600388,219.15761331619194,8.645952485591856,8.645952485591854,196.38069033593453
355.28612997090204,218.82669758564256,8.89682011665295,8.89682011665295,196.02895568032508
354.6459747817653,218.6080258762036,8.690627956622807,8.690627956622802,196.27588650792273
354.00581959262854,218.6623834295542,8.833241399359776,8.833241399359771,196.96654800013252
353.3656644034918,217.98504362252828,8.583134225833517,8.583134225833511,196.0686316367589
352.725509214355,217.91837374964487,9.031191868742871,9.03119186874287,196.19181639874927
352.08535402521824,218.76654421423044,8.70172972501767,8.701729725017668,195.78134906956765
351.4451988360815,218.6388778121678,8.706213347608648,8.706213347608651,196.72634751107933
350.80504364694474,218.01475315720535,8.673493345075133,8.673493345075128,196.86177644798664
350.164888457808,218.50637232438683,9.04251563622045,9.04251563622045,196.29669217415565
349.5247332686712,218.3985134545414,8.999534485360153,8.99953448536016,195.90382415016353
348.88457807953444,218.1529207791133,8.303906992941064,8.303906992941064,196.02280369999337
348.2444228903977,218.38807784912277,8.667790689747285,8.667790689747283,196.37378600774196
347.60426770126094,218.03105612218033,8.697012122118961,8.697012122118961,195.4174145301401
346.9641125121242,218.34585760257355,8.643552801605862,8.643552801605859,194.7529340312038
346.3239573229874,217.57060022678553,9.179122954972614,9.179122954972614,195.8121513618285
345.68380213385063,217.8738971311939,8.935548895243107,8.935548895243114,195.59504830447375
345.0436469447139,217.96879292752186,9.210034073257614,9.210034073257619,194.74574148988532
344.40349175557714,217.8258426640248,8.518748329441312,8.518748329441308,195.0628409042791
343.7633365664404,218.11081242243287,9.113800453309294,9.113800453309294,195.60509257171128
343.1231813773036,217.83007457115804,9.049025975959363,9.049025975959363,195.05440710236024
342.48302618816683,222.477470772978,11.809136951605382,11.809136951605389,196.2913872756441
341.8428709990301,217.7700322177515,9.016577126444378,9.016577126444382,194.81246024784943
341.20271580989333,218.31759045335707,8.684735081124035,8.684735081124037,196.23934667161993
340.5625606207566,217.93676649263327,9.24828003507714,9.248280035077146,195.22720060721488
339.9224054316198,217.52058192394395,9.104454273404494,9.104454273404492,195.19945722694547
339.28225024248303,218.0791619613326,8.679617844693434,8.679617844693434,195.45536364947066
338.6420950533463,218.60711994491808,8.869370023348226,8.869370023348228,196.33894981492188
338.00193986420953,218.16264038607184,9.081822051466458,9.081822051466457,196.31856564694672
337.3617846750728,218.10829687459275,8.705861163609736,8.705861163609734,196.64310037611966
336.721629485936,218.1967538046526,8.91926525521646,8.91926525521646,195.82909287298818
336.08147429679923,217.69502731046555,8.75194146405636,8.751941464056358,196.3707775739518
335.4413191076625,218.40768373502982,8.735026661834775,8.735026661834778,194.8099501049422
334.80116391852573,218.199880730711,8.664294676590531,8.664294676590535,195.24841001362657
334.161008729389,218.00963403764135,9.025201702688873,9.025201702688873,195.6632262538303
333.5208535402522,218.0843854500585,8.91287130613511,8.91287130613511,195.3367521619236
332.8806983511154,217.8145678553184,8.602616277786233,8.602616277786236,195.19794735687285
332.2405431619787,218.5525711997287,8.811361800135757,8.81136180013576,195.10129891318132
331.60038797284193,217.92112959945297,8.59641179916028,8.59641179916028,195.4266325719807
330.9602327837052,217.98301702247272,8.848063643709066,8.848063643709072,195.5726519146749
330.3200775945684,217.93618352381637,9.060258665078948,9.060258665078948,196.02472667213252
329.6799224054316,218.2084036366452,9.023382673838134,9.023382673838134,196.20191083573613
329.0397672162949,219.02065617469242,8.86557091759374,8.865570917593741,195.9310279336717
328.3996120271581,217.51539874024712,9.335089948572163,9.335089948572154,196.32204009889972
327.7594568380214,217.80355732141706,8.921057999958903,8.921057999958899,195.32297447106015
327.1193016488846,218.37011397076432,9.153576680986653,9.153576680986655,195.61841597825912
326.4791464597478,219.14374161598565,8.704297901874886,8.704297901874886,196.36366106565077
325.8389912706111,217.84217254773282,9.288486322522838,9.28848632252284,195.43690663957727
325.1988360814743,217.49482820900806,9.135153044348705,9.135153044348705,196.14441132355248
324.5586808923376,217.31688605280797,9.127413845160076,9.127413845160078,195.58835902901035
323.91852570320077,217.7523525270731,9.648278773981968,9.648278773981968,195.8093936583044
323.278370514064,217.5413752274224,9.422612515838484,9.42261251583848,195.55379009543634
322.6382153249273,217.0284600459634,9.206446374975387,9.206446374975389,195.2216970799228
321.9980601357905,216.6946005438335,8.981909643862377,8.981909643862378,195.6890192393454
321.3579049466538,218.11264841773377,9.214543529752559,9.214543529752563,196.31544243949241
320.71774975751697,217.77867929253972,8.96543161208456,8.965431612084565,195.9405842958678
320.0775945683802,217.0257349949028,9.08070178257281,9.08070178257281,196.49921647524422
319.4374393792435,217.82155538224876,9.120950800895262,9.120950800895265,195.88871198132736
318.7972841901067,217.43050902983367,9.316895278209824,9.316895278209829,195.69735611945822
318.15712900097,217.77448854831886,8.85775234380072,8.857752343800719,195.45830712565973
317.51697381183317,218.01425656362176,8.894037944292634,8.89403794429264,196.03618596620024
316.8768186226964,217.04976287416503,9.413239300144578,9.413239300144578,195.48000535483484
316.23666343355967,216.71705394517275,9.245976209140586,9.245976209140586,194.8073013476637
315.5965082444229,217.16020692945054,9.086678719830124,9.086678719830124,195.43211406038637
314.9563530552862,217.8785656854896,9.367275149551567,9.367275149551567,195.762740380722
314.31619786614937,217.48193735283968,9.017654429994407,9.017654429994401,195.698046378397
313.6760426770126,218.39027294322702,9.171329991298782,9.171329991298785,196.0885101236904
313.03588748787587,217.81752003290296,9.114052515702697,9.1140525157027,195.79676714298012
312.3957322987391,217.63637275129184,9.414068601305427,9.414068601305432,195.99977247652706
311.75557710960237,217.65758665733867,9.340448665530403,9.340448665530404,196.53489849829288
311.11542192046556,218.0965320143958,9.374292962604617,9.374292962604613,195.78415565690617
310.4752667313288,217.2116254955792,9.011481594667133,9.011481594667137,196.01051920508695
309.83511154219207,217.23577916233705,9.299745247031899,9.299745247031895,196.23824472434376
309.1949563530553,217.68358862118913,9.29299820900957,9.29299820900957,196.4322820556272
308.55480116391857,217.69322440828552,9.260225816063548,9.26022581606354,195.66311806523152
307.91464597478176,217.182865757722,9.433061174680978,9.43306117468098,195.84246420514134
307.274490785645,217.7627122173232,9.114276582171051,9.11427658217105,195.596853895442
306.63433559650827,218.17769297559678,9.535227977420174,9.53522797742018,195.8965583669473
305.9941804073715,217.74226241130054,9.239817145145027,9.239817145145029,195.7953143104566
305.35402521823477,217.75250821248116,9.251070524442238,9.251070524442243,195.8101382188451
304.71387002909796,217.20569134636668,9.405965406240911,9.405965406240915,195.95018953335116
304.0737148399612,217.1895018817888,9.455266743420534,9.455266743420529,195.8066488255617
303.43355965082446,217.01235467765304,9.494639236784366,9.494639236784362,195.4988491416177
302.7934044616877,217.89803594819477,8.709956445045924,8.709956445045927,194.97416573540747
302.15324927255097,217.40741365861624,9.107024263311747,9.107024263311747,195.31188612066643
301.51309408341416,217.85903294572535,9.227581381275636,9.22758138127564,196.01094359664893
300.8729388942774,217.32169132721845,9.217344928309492,9.217344928309489,196.65333054608897
300.23278370514066,217.49184993529354,9.023580124311282,9.023580124311282,196.88409572092624
299.5926285160039,216.50569863721202,9.124781249366164,9.124781249366162,195.58058724794185
298.95247332686716,217.42350085100594,9.293770904596586,9.293770904596586,196.3829193499053
298.31231813773036,217.06807733956913,9.284169740967918,9.284169740967918,194.68574627104186
297.6721629485936,216.66319179601356,8.969185746098875,8.969185746098876,195.1486846149426
297.03200775945686,216.72024908021962,9.10368236906698,9.103682369066979,195.65221493048136
296.3918525703201,217.71059632042437,9.462750628578172,9.462750628578164,196.0824219585903
295.75169738118336,216.35467821711325,9.448283617807482,9.448283617807483,195.4937669224364
295.11154219204656,216.9041052355905,9.330182163328626,9.330182163328626,196.05365328017328
294.4713870029098,217.0789028529614,9.269191954710072,9.269191954710072,195.9019683702631
293.83123181377306,217.0472694407124,9.239960126915491,9.239960126915491,196.77268461754596
293.1910766246363,217.7267522790956,9.495282978087312,9.495282978087312,197.07953458739988
292.55092143549956,217.88028420185844,9.261008963185812,9.261008963185812,196.6261073065731
291.91076624636275,217.69164923524767,9.104237197834589,9.10423719783459,196.23728165560672
291.270611057226,218.50102853472646,9.16792168793768,9.16792168793768,196.3943502545684
290.63045586808926,217.21755727107475,9.244671639334797,9.244671639334797,196.35436883716255
289.9903006789525,217.34515578593926,9.014246311772816,9.014246311772817,197.89298558928024
289.35014548981576,217.67737065128932,9.310123890710498,9.310123890710502,196.46328674054726
288.70999030067895,217.74481504638638,9.544416452062414,9.54441645206241,195.5351680623604
288.0698351115422,217.61102479152433,9.312877425892953,9.312877425892957,196.08057588460946
287.42967992240546,217.55322168249126,9.44428774220108,9.444287742201075,195.4959735902666
286.7895247332687,217.42457897672074,9.348502822964937,9.348502822964939,196.44416142464394
286.14936954413196,217.42804625515802,9.640021095073292,9.640021095073287,195.86997891739045
285.50921435499515,217.61275715405674,9.142413635642598,9.1424136356426,195.6717156923363
284.8690591658584,216.5305993286713,9.548755296840516,9.548755296840513,196.18822383689437
284.22890397672165,217.38204368192316,9.17834422103037,9.178344221030368,195.37768132584785
283.5887487875849,216.8530109092394,9.522986252936342,9.522986252936345,195.97476243469205
282.94859359844816,216.60925750815082,9.007170294515115,9.007170294515111,196.10487457100203
282.30843840931135,216.8245117521557,9.604267806450663,9.604267806450663,195.74571652177744
281.6682832201746,216.63937112325345,10.064678732884001,10.064678732883998,195.97626630337766
281.02812803103785,217.29807669543038,9.527143869691315,9.527143869691317,195.46637539999008
280.3879728419011,216.4826074650396,9.857625771876936,9.857625771876942,195.73691186246919
279.74781765276435,216.42369006659618,9.711617586150581,9.711617586150581,196.29059365586616
279.10766246362755,216.38225103456423,9.42415675142316,9.424156751423158,196.4688681093626
278.4675072744908,216.84783819153287,9.536074619550591,9.536074619550591,196.08005694955244
277.82735208535405,216.57274821489577,9.536866528874375,9.536866528874379,195.67002884195188
277.1871968962173,216.28063480804525,9.578961184007783,9.578961184007783,195.623166292872
276.5470417070805,216.15510526694175,9.51945761102353,9.51945761102353,195.53598595666324
275.90688651794375,216.24106879780274,9.56604788501963,9.566047885019634,195.96542599543957
275.266731328807,215.94414424439867,9.872262994335474,9.872262994335468,195.72376279933079
274.62657613967025,216.23234478931198,9.326033919348268,9.326033919348264,195.93946294266686
273.9864209505335,216.27080192585,9.361565742115463,9.361565742115463,195.886361749857
273.3462657613967,216.42998879940436,9.474931711576938,9.474931711576934,195.2522047164325
272.70611057225995,216.06751943192552,9.81737926308721,9.81737926308721,195.65394857401597
272.0659553831232,216.7614815988784,9.77459184616983,9.77459184616983,195.333261802256
271.42580019398645,216.37454644833534,9.617218353487655,9.617218353487656,195.75012456314502
270.7856450048497,216.3638295091981,9.788352321069548,9.788352321069555,196.10677380064928
270.1454898157129,216.82155280821905,9.52344101209289,9.523441012092892,196.14948986004686
269.50533462657614,215.85681782542855,9.516977209652886,9.516977209652882,196.37098256227404
268.8651794374394,216.5272964966264,9.207763375121688,9.207763375121687,196.56123272798294
268.22502424830265,216.28739187130594,9.779897982885815,9.779897982885815,195.70630484989383
267.5848690591659,216.40002644659572,9.517521894174136,9.517521894174134,195.7173215331855
266.9447138700291,216.628411285867,9.435667156339886,9.435667156339886,196.07652848712286
266.30455868089234,217.0091535641199,9.407341436021145,9.407341436021145,195.97466358114258
265.6644034917556,215.93710612972265,9.30316704861369,9.303167048613691,196.34844753915186
265.02424830261884,216.2342382444166,9.631556278107682,9.63155627810768,195.53750920678573
264.3840931134821,215.7492947347494,9.259077882968858,9.259077882968858,196.4180503711894
263.7439379243453,216.20718436273748,9.575731364746014,9.575731364746018,196.7613837757363
263.10378273520854,216.66454010871922,9.67678116381462,9.676781163814617,195.91337727966143
262.4636275460718,215.9913795055108,9.326599642320407,9.326599642320403,195.99185783266552
261.82347235693504,215.65508521687627,9.63140451476894,9.631404514768942,196.55449091549406
261.1833171677983,216.53116008505933,9.649815297116202,9.649815297116202,196.3979074059197
260.5431619786615,216.3090156038107,9.794630851376992,9.794630851376992,196.56526945614496
259.90300678952474,216.71224730103964,9.106817453424897,9.1068174534249,196.02558900976237
259.262851600388,216.81183998145818,10.375229211877938,10.375229211877933,198.23194071773017
258.62269641125124,216.40891819765773,9.53963457996749,9.53963457996749,196.09555900083407
257.9825412221145,216.28146697020642,9.227930692903525,9.227930692903525,196.23473015456932
257.3423860329777,215.60362641699277,9.710187028726722,9.71018702872672,195.98174082261937
256.70223084384094,215.55515970273396,9.988353114096375,9.988353114096375,196.00409163929237
256.0620756547042,215.97487579799503,9.713544381687493,9.71354438168749,196.20168010109572
255.42192046556744,216.1630293104855,9.648493664476645,9.648493664476643,195.62422319491856
254.7817652764307,215.52468725087778,9.489853457599985,9.48985345759998,196.35827291772787
254.14161008729388,215.67439461762683,9.679305631933971,9.679305631933971,195.72107451382635
253.50145489815714,216.71226517251844,9.27798563551141,9.277985635511412,195.58314127094738
252.8612997090204,217.29664283067117,9.332759875549419,9.332759875549424,196.88730359778083
252.22114451988364,213.83483093841267,9.395156017613413,9.395156017613406,194.7479576453261
251.5809893307469,214.94955579984483,9.169882899705959,9.169882899705962,195.66528750759784
250.94083414161008,213.2291827743347,9.343681465452145,9.343681465452143,193.39437073386836
250.30067895247333,212.9150772414024,9.067733374175337,9.06773337417533,194.23772165452473
249.66052376333658,212.9334479259378,9.723948886474494,9.72394888647449,193.98077321766706
249.02036857419984,213.25554772953853,9.938292756027142,9.93829275602714,194.6899708326861
248.3802133850631,211.57118709393984,9.867346478752836,9.867346478752832,193.05273289333948
247.74005819592628,211.89454663023213,9.786000978329328,9.786000978329328,192.32458436756156
247.09990300678953,212.02296492454306,9.796739639549989,9.796739639549992,192.8707433393028
246.45974781765278,212.1968242628217,9.536718840210959,9.536718840210959,193.18542855062444
245.81959262851603,211.35991753002838,9.558733315062595,9.558733315062598,191.86883067749952
245.17943743937929,212.03471912353476,9.277230957835366,9.277230957835368,192.83696841460252
244.53928225024248,212.1431603645503,9.671212513774224,9.671212513774229,192.3376611807147
243.89912706110573,211.69266965692492,9.380597881065649,9.380597881065647,192.76209945903676
243.25897187196898,211.52256653525745,9.596938571146538,9.596938571146538,193.16364368933438
242.61881668283223,212.31700224761911,9.215752236187877,9.215752236187877,193.10622369000927
241.97866149369548,212.16428213733394,9.431107965170673,9.431107965170673,192.53872481763264
241.33850630455868,211.95972876394256,9.323739789751523,9.323739789751516,193.47509036092168
240.69835111542193,212.41075471596292,9.453736965638686,9.453736965638686,192.81483863801444
240.05819592628518,212.04158791719405,9.124930874300839,9.12493087430084,193.14811684681553
239.41804073714843,211.21697056617097,9.453575688547732,9.45357568854773,192.51246499513312
238.77788554801168,211.79449776805694,9.488674417237744,9.488674417237744,193.19169429586276
238.13773035887488,211.80010764774116,9.965199492764283,9.965199492764283,192.35825226567573
237.49757516973813,211.21490867310493,9.74456508558383,9.744565085583833,192.1337421156985
236.85741998060138,211.21256225908493,10.018266089212089,10.018266089212089,191.27315414064634
236.21726479146463,211.52415657431754,9.618522884444548,9.618522884444548,191.77401958316457
235.57710960232788,211.34198583252333,9.736809654852905,9.736809654852905,191.87240467440463
234.93695441319107,211.93748474586633,9.390117451444063,9.390117451444063,192.52246737483566
234.29679922405433,211.30420490591624,9.407914561104311,9.407914561104317,192.7959025874366
233.65664403491758,210.86008129280313,9.418291825748645,9.418291825748646,192.89291785763035
233.01648884578083,211.42472590222596,9.61761376600502,9.617613766005011,192.2738806746968
232.37633365664408,211.24039626683856,9.189782315621775,9.189782315621775,193.59827401478745
231.73617846750727,211.4762583767078,9.985337364727183,9.985337364727183,191.23932673033693
231.09602327837052,211.0112439484321,9.648255969399735,9.648255969399736,191.41877809184646
230.45586808923377,210.59977508151155,9.532590390569776,9.532590390569776,191.7247383261102
229.81571290009703,210.50886241412627,9.489300431719347,9.489300431719345,192.32013029488303
229.17555771096028,210.85971240839083,9.769268512847157,9.76926851284716,192.35858831828745
228.53540252182347,210.8651919209173,9.965483199825032,9.965483199825028,192.45532007873393
227.89524733268672,210.79977433144384,9.722377639873043,9.72237763987305,192.39344256898045
227.25509214354997,211.0619487582069,10.400968307200626,10.400968307200628,192.0658129049384
226.61493695441322,211.10372636258285,9.498393776850177,9.498393776850179,192.69326536918737
225.97478176527648,210.96327309523133,9.722642766735257,9.722642766735259,193.6150386663808
225.33462657613967,211.33837242161303,9.94400513653299,9.944005136532986,192.7153720023195
224.69447138700292,210.64369068649881,9.494371157375891,9.494371157375891,192.21802305576531
224.05431619786617,210.33978230456557,9.5751169392693,9.575116939269307,192.21480026572243
223.41416100872942,210.4376824199089,9.552836465074789,9.552836465074783,192.73922765418655
222.77400581959267,211.4169642062802,9.655331117729695,9.655331117729695,192.7085518737021
222.13385063045587,210.86566486969573,9.373603379876146,9.373603379876146,192.54357564151496
221.49369544131912,209.86466899748888,9.610160302344823,9.610160302344823,192.22843536451427
220.85354025218237,210.52418270812782,9.82784415589138,9.82784415589138,192.798886848292
220.21338506304562,210.1716562658026,9.865244469284566,9.865244469284566,192.58456952158542
219.57322987390887,210.0133697519435,9.96604192873844,9.966041928738441,192.53991955707875
218.93307468477207,210.47330859948897,9.918645164809528,9.91864516480953,192.2054443562369
218.29291949563532,210.34478939310046,9.399142817743574,9.399142817743574,192.62252672830536
217.65276430649857,210.69794898472935,9.888046582141294,9.888046582141298,192.46244714887658
217.01260911736182,210.12187540341256,9.772945422294372,9.772945422294372,193.2907359067389
216.37245392822507,210.43725444317317,9.766405389804804,9.766405389804802,192.33304223542623
215.73229873908826,210.78233601336441,9.619195653324066,9.619195653324066,192.42625450412135
215.09214354995152,210.04002978959107,9.925095842429007,9.925095842429009,191.81508244391065
214.45198836081477,210.09192433124284,9.83032714469827,9.830327144698265,192.16220490201403
213.81183317167802,210.8377026329162,9.795555670188955,9.795555670188959,192.22808262704527
213.17167798254127,210.1389191184092,9.781462518929896,9.781462518929896,192.25539499197382
212.53152279340446,210.11000459909218,9.815856402698772,9.815856402698767,192.26729211309868
211.8913676042677,209.65204261556022,10.208152143125647,10.208152143125645,192.65041959612626
211.25121241513096,210.07690385689747,9.9521974543327,9.952197454332701,192.18581063091685
210.61105722599422,210.09887022205757,9.765146434431953,9.765146434431953,192.0633308953075
209.97090203685747,210.07521717453093,9.814094863565789,9.814094863565787,192.66637113907254
209.33074684772066,210.20036658282834,9.952125330005348,9.95212533000535,192.91198749178287
208.6905916585839,210.10499720355728,9.957592180712217,9.957592180712219,192.87844194415206
208.05043646944716,209.56491630974966,10.243264007853332,10.243264007853334,192.62698354629924
207.41028128031041,210.35144613554237,10.077328446167945,10.077328446167945,192.37271823307248
206.77012609117367,210.83133194086707,9.815336680375411,9.815336680375413,192.71366422700993
206.12997090203686,210.31076534236553,9.914061502981289,9.914061502981287,192.27594448745128
205.4898157129001,210.06995467453018,9.788135233544264,9.788135233544265,192.43599688690043
204.84966052376336,210.5883354273015,9.877978507400305,9.877978507400302,192.14831265406187
204.2095053346266,209.92367688154988,10.142906836459598,10.142906836459598,193.31677084244396
203.56935014548986,210.43505410165588,10.14523550182961,10.145235501829614,192.4674709220167
202.92919495635306,210.27800412019644,10.183137108493396,10.1831371084934,192.26228589691627
202.2890397672163,210.55059831551887,10.061497020077432,10.06149702007743,192.2219977797494
201.64888457807956,210.57323611761834,10.494148597881582,10.494148597881576,193.36006191446813
201.0087293889428,210.41864745810307,10.227843740778145,10.227843740778138,192.5539210310421
200.36857419980606,210.281586838106,10.284644905053018,10.284644905053021,192.34018736375347
199.72841901066926,210.62500859640127,10.28231568090519,10.282315680905194,193.77238201305937
199.0882638215325,210.22824592508638,9.810195850217303,9.810195850217303,193.6991446132007
198.44810863239576,210.86028035314132,9.943976881816274,9.943976881816281,194.39058339205698
197.807953443259,210.67634637941185,10.029324615776751,10.029324615776751,193.62360394841596
197.16779825412226,210.34699486560203,10.026746151138267,10.026746151138264,193.23634741254367
196.52764306498545,209.2706419220365,10.481998576541296,10.481998576541294,192.59859728394147
195.8874878758487,208.28007008376858,10.227106314464402,10.227106314464402,194.23492050593313
195.24733268671196,208.70629386305947,10.439349605385306,10.43934960538531,192.87657268849108
194.6071774975752,209.45728028306914,10.037285035290388,10.037285035290392,193.82029356598417
193.96702230843846,209.9772428897651,9.930026526405332,9.930026526405339,193.66357830777426
193.32686711930165,209.48474444256348,10.316479481126093,10.316479481126096,193.29517973459082
192.6867119301649,209.9318345065045,10.003017957495748,10.00301795749574,194.2406558752665
192.04655674102816,209.57016050198948,10.107362113915245,10.107362113915244,193.47048560748982
191.4064015518914,209.39981637449392,9.492306548158824,9.492306548158826,195.01296080843147
190.76624636275466,208.9882822253787,10.745222201116484,10.745222201116489,193.88609071747817
190.12609117361785,209.65104397481548,10.23154358190681,10.23154358190681,193.29431681601045
189.4859359844811,208.72959449965276,10.518614812911832,10.518614812911835,193.54342072746098
188.84578079534435,208.5844621394186,10.277444442627328,10.277444442627324,194.37992004673026
188.2056256062076,208.51810416217143,10.179284067995633,10.179284067995633,193.92653777043586
187.56547041707086,209.3743892852493,10.512313270107422,10.512313270107416,193.44490382225132
186.92531522793405,209.06150564392456,10.313397349714878,10.313397349714888,194.45559640314428
186.2851600387973,208.7375604829189,10.240395193849293,10.240395193849288,193.8403974439727
185.64500484966055,209.2249204166748,9.951710782962904,9.951710782962905,193.7624571115299
185.0048496605238,208.60592352833393,10.658583528152361,10.658583528152361,194.07817028058435
184.36469447138705,207.86408943667976,10.16320099181117,10.163200991811172,193.78361723282146
183.72453928225025,209.23274081205747,10.30929913833309,10.309299138333094,193.8004289794693
183.0843840931135,208.1035775332735,10.452624316009281,10.452624316009276,194.487446739085
182.44422890397675,208.36914632104532,10.301456861312545,10.30145686131255,194.2269314122469
181.80407371484,208.00547460914424,10.079172829569515,10.079172829569519,194.58777282183448
181.16391852570325,208.21859309172376,10.392455444015296,10.3924554440153,193.77016403163
180.52376333656645,208.71368263521603,9.91675273374868,9.916752733748682,195.1296878288163
179.8836081474297,208.50763432670945,10.4550650363386,10.455065036338599,193.66368749661527
179.24345295829295,208.63045061280835,10.574512192326733,10.574512192326731,194.40362742407027
178.6032977691562,208.5088349762366,10.144271718129543,10.144271718129543,194.45867928768803
177.96314258001945,208.85519773251642,10.366121561085734,10.366121561085734,194.23006727937207
177.32298739088264,208.75183640920628,10.263863116240897,10.2638631162409,194.3039667195881
176.6828322017459,208.0351221901228,10.597618725848085,10.597618725848086,194.63435897929622
176.04267701260915,208.57467805102954,10.421551772954707,10.421551772954707,194.91131975119032
175.4025218234724,209.15381698603542,10.40270008200193,10.40270008200193,194.95930913283618
174.76236663433565,208.17927080019604,10.521128318142384,10.521128318142384,195.14160161073042
174.12221144519884,208.03605776107682,9.776223648216076,9.776223648216076,195.93406519020039
173.4820562560621,208.73281190410387,10.1657145906461,10.165714590646104,194.9804659499589
172.84190106692535,208.92130458232697,10.212961264210453,10.212961264210454,195.35064517567054
172.2017458777886,208.20891207305905,10.244072439782174,10.244072439782174,194.31272852881972
171.56159068865185,208.43693002835934,10.108996025713665,10.108996025713658,194.59966172582457
170.92143549951504,208.36751791102844,10.408362134591862,10.408362134591854,193.50823027262922
170.2812803103783,208.6197932330147,10.126145681801468,10.126145681801464,195.0303408691035
169.64112512124154,208.17943032732848,10.186939871382561,10.186939871382561,194.80114644876656
169.0009699321048,208.67309563070626,10.32710894898513,10.327108948985122,194.3232224616885
168.36081474296805,208.09431946346209,10.484302287842226,10.48430228784222,194.41954301596382
167.72065955383124,208.90961151432865,10.113915107043992,10.11391510704399,195.4176908927364
167.0805043646945,208.7622836963021,10.378758341945229,10.378758341945229,194.21721772630895
166.44034917555774,208.3861294515857,10.386300831656156,10.386300831656156,195.1867773049454
165.800193986421,207.5022904556274,10.642641936247662,10.64264193624766,195.25320473010672
165.1600387972842,208.729999450072,10.71089562437895,10.710895624378953,195.07805124998978
164.51988360814744,207.59420039147008,10.608952706600519,10.608952706600519,195.04132275632767
163.8797284190107,208.05539507885294,10.025731411403905,10.025731411403909,196.74959187221094
163.23957322987394,208.58057365836515,10.585016005106189,10.585016005106183,195.73177629961202
162.5994180407372,208.2679992251917,10.56648536031718,10.56648536031718,195.24969787651816
161.95926285160039,209.31023353272172,10.089548919576009,10.08954891957601,194.90149722567514
161.31910766246364,208.1952060361275,10.723649883899755,10.723649883899755,195.43309023264572
160.6789524733269,207.7599158805683,10.568163007866573,10.568163007866566,195.2930106651984
160.03879728419014,208.14018909978873,10.390622709055846,10.390622709055846,195.07703478508293
159.3986420950534,207.96169904798577,10.211824851076717,10.211824851076717,194.46497242769283
158.75848690591658,208.59069546207502,10.167596374553233,10.167596374553234,195.4304176160141
158.11833171677984,208.79349267613233,9.937817377939737,9.937817377939737,196.08045830386592
157.4781765276431,208.38760257605563,10.353127982508644,10.353127982508648,194.875097743574
156.83802133850634,208.43717468274292,10.342022880222236,10.342022880222236,196.15537312018645
156.1978661493696,208.3911065976564,10.460917214326637,10.460917214326642,195.79291148228455
155.55771096023278,208.1404075185808,10.158743612269802,10.158743612269804,196.13380616880343
154.91755577109603,208.4675497097151,10.034934579529503,10.034934579529503,196.26991254429726
154.27740058195928,209.00452338437447,10.658818807209574,10.65881880720957,195.50635843043293
153.63724539282254,208.71961146486063,10.38994691995977,10.38994691995977,194.91046235534185
152.9970902036858,208.33138578828954,10.825749114582983,10.825749114582981,195.92712592414418
152.35693501454898,208.04514167301053,10.52058523600376,10.520585236003756,195.02032064215817
151.71677982541223,207.61618652724923,10.824178949577433,10.824178949577439,195.89228379038644
151.07662463627548,207.96999816781968,10.331885635067415,10.331885635067408,195.41926037035253
150.43646944713873,207.80179319754126,10.180115695910983,10.180115695910983,196.62032565919242
149.79631425800198,207.6480861685186,10.337189789584178,10.337189789584178,196.2769969724356
149.15615906886518,207.9526526701455,10.416997611304339,10.416997611304334,196.68131044575284
148.51600387972843,207.85750045491037,10.459961463594052,10.459961463594054,195.40076530232673
147.87584869059174,207.74717251273628,10.87195862401759,10.87195862401759,196.1183049490868
147.23569350145488,208.19967557364492,10.744029338899706,10.744029338899706,196.06647490832856
146.59553831231813,208.1765986484806,10.479167670309492,10.479167670309492,196.80431337085102
145.95538312318138,208.30408063511678,9.909710118175903,9.90971011817591,196.70781100007352
145.31522793404463,207.9446603590119,10.509508370915576,10.509508370915576,196.20061401830634
144.67507274490788,207.52838103578495,10.66445893213446,10.66445893213446,196.13909247546184
144.03491755577113,208.0079268258791,10.646695860050633,10.646695860050633,196.94341151089841
143.39476236663438,207.778878026481,10.383351483782008,10.383351483782008,196.06243741513705
142.75460717749763,207.56779592090282,10.252947688067252,10.252947688067254,196.36408930612973
142.11445198836088,207.8574705359995,10.130449495275547,10.130449495275546,196.08854885783316
141.47429679922413,207.1413990289955,10.705629758530455,10.705629758530453,196.56822956666593
140.83414161008727,207.21641916210737,10.521448916811938,10.521448916811934,196.71796050843383
140.19398642095052,207.1954893648808,10.858854113720646,10.858854113720646,195.7432176844124
139.55383123181377,207.85075713412772,10.601217442134862,10.601217442134867,196.25298881059197
138.91367604267703,208.0114119587109,10.628039627051246,10.628039627051246,196.44976733682273
138.27352085354028,207.7347891864476,10.273127808485338,10.273127808485341,196.4560661060863
137.63336566440353,208.6261742839316,10.012428247377365,10.012428247377365,196.88694610773842
136.99321047526678,207.49832007894045,10.330755220337565,10.330755220337558,196.33098672464592
136.35305528613003,207.90206333285352,10.54305198532861,10.543051985328617,196.73442892556912
135.71290009699328,207.61239581238672,10.672553762510372,10.672553762510372,196.53187931749622
135.07274490785653,207.60496575549462,10.675263385857178,10.675263385857177,196.8351943939444
134.43258971871967,207.60750748428975,10.138750216767681,10.138750216767678,197.12664634803633
133.79243452958292,207.7915277450358,10.239978030259847,10.239978030259849,196.78118131435463
133.15227934044617,206.71832750279623,10.462390707281084,10.462390707281081,196.94562882342333
132.51212415130942,206.78825090503494,10.567849232529158,10.567849232529152,196.22733792873044
131.87196896217267,206.44221346144562,10.279390349911205,10.279390349911205,197.97543523025735
131.23181377303592,206.6263553714712,10.651463907382983,10.65146390738299,196.8433315861221
130.59165858389918,207.19352504413172,10.268700975959117,10.26870097595912,196.81555710272076
129.95150339476243,207.11162381744614,10.611760786626757,10.611760786626753,196.40602723669627
129.31134820562568,207.5307933156049,10.9126467208918,10.9126467208918,196.33120859376615
128.67119301648893,206.85471834096415,10.745072561413137,10.745072561413137,196.85768823528363
128.03103782735207,207.06227303242585,10.755724871466196,10.755724871466196,197.15288184919697
127.39088263821532,207.28047699964674,10.479334017088638,10.479334017088634,197.3268039193758
126.75072744907857,206.59335299088147,10.540624046950926,10.54062404695093,198.36693711833982
126.11057225994182,207.04240149154413,10.562142800857059,10.562142800857053,197.1844387628128
125.47041707080507,208.27160456420052,10.551349684086631,10.551349684086631,197.19425284861686
124.83026188166832,207.35266927977756,10.683223704220113,10.68322370422012,197.33708848165077
124.19010669253157,207.23585580977633,10.538023384333357,10.538023384333359,196.4835678449303
123.54995150339482,206.80982564060324,10.844302100984276,10.844302100984274,196.68521414832568
122.90979631425807,206.96295003208803,10.249921416888391,10.249921416888391,196.78318425653418
122.26964112512132,206.99722884957254,10.49676287271392,10.496762872713918,197.8645671431172
121.62948593598446,207.4680162987093,10.247106866857141,10.247106866857141,198.0771763958367
120.98933074684771,207.29109421557698,10.71721131560221,10.71721131560221,197.6781635145335
120.34917555771096,207.51649536685292,10.518880381467412,10.518880381467408,197.8042890093041
119.70902036857422,206.51610173915702,10.755968482192687,10.755968482192687,198.1633594012476
119.06886517943747,207.4803881809155,10.53139400605299,10.531394006052988,197.50093218510335
118.42870999030072,206.64813303283378,10.424643175228441,10.424643175228445,198.34994081073015
117.78855480116397,207.22840260769203,10.242337056181574,10.242337056181578,197.7663537005561
117.14839961202722,206.91920841653226,10.492524072672259,10.492524072672259,197.9301580165428
116.50824442289047,206.8452745652045,10.818869019178358,10.818869019178358,196.97944679838932
115.86808923375372,207.03956412166048,10.471298707031401,10.471298707031401,196.90523508167553
115.22793404461686,206.9607560015562,9.994961217140405,9.9949612171404,198.16441110493324
114.58777885548011,207.06735964707627,10.01951456082033,10.019514560820328,198.59768842027964
113.94762366634336,207.50238137993804,10.10420609439243,10.104206094392428,198.26324302499305
113.30746847720661,206.94820212872963,10.174189913737264,10.174189913737264,197.74751301029715
112.66731328806986,207.18226360541647,10.093506517481481,10.093506517481481,198.33971712089925
112.02715809893311,207.03990432456544,10.522093539646765,10.522093539646765,197.76684274722388
111.38700290979637,206.79645345392848,10.307525849264927,10.307525849264914,198.3664246581552
110.74684772065962,206.52111054440326,10.785708427408169,10.785708427408164,198.12610302029648
110.10669253152287,207.18379388180213,10.636294941548012,10.63629494154801,198.4450059309631
109.466537342386,206.4634210519445,10.634648854919694,10.634648854919691,198.95750976928937
108.82638215324926,206.8329230312926,10.48745269773808,10.487452697738084,198.66136408274988
108.1862269641125,207.31593055393404,10.321270177179658,10.321270177179658,199.0285455504434
107.54607177497576,206.90238689190016,10.248567638104259,10.248567638104264,197.93167146780632
106.90591658583901,206.87548810773825,10.20180276939461,10.201802769394607,199.3301564619857
106.26576139670226,207.18898196597155,10.35708206688291,10.357082066882915,199.29619409573021
105.62560620756551,206.6347108192824,10.475969663006637,10.47596966300663,199.04151966181993
104.98545101842876,207.3398766039565,10.540841969046085,10.540841969046085,199.16110113295997
104.34529582929201,206.32365792981565,11.109088271810927,11.109088271810922,198.70661771008713
103.70514064015526,206.54993289901762,9.9931736518819,9.993173651881902,199.5653002699784
103.0649854510184,207.36458460739343,10.433474578535643,10.433474578535643,199.36109632136998
102.42483026188165,206.0776504959905,10.40023025176906,10.40023025176906,199.05665233301937
101.7846750727449,206.52978580349372,10.375198006506347,10.375198006506343,199.00687922380723
101.14451988360815,206.7002333000722,9.953744344615453,9.953744344615458,199.66432018989482
100.5043646944714,207.16585657375526,10.820324688794859,10.820324688794864,198.58885126109482
99.86420950533466,207.16212298555996,10.430067587403402,10.430067587403396,198.6728194177089
99.22405431619791,206.16416787062593,10.13128521187075,10.13128521187075,199.73157484208878
98.58389912706116,206.85327412850827,10.557183978419157,10.557183978419152,199.5810189649428
97.94374393792441,207.25560138244325,9.810008486468957,9.810008486468966,200.2060739869572
97.30358874878766,206.5241693188698,10.31737195291924,10.31737195291924,200.21462669527895
96.6634335596508,207.2240157378484,10.055829335060048,10.055829335060048,199.91685318687414
96.02327837051405,207.26809395580298,10.414212811439608,10.414212811439603,200.10597098300892
95.3831231813773,207.08413057920612,10.142061867953622,10.142061867953629,200.2140815054542
94.74296799224055,207.19807105989705,10.195468677301573,10.195468677301573,200.01406135612058
94.1028128031038,207.00395532681665,10.321554484287773,10.32155448428777,200.49866674893104
93.46265761396705,206.63094866710213,10.220195633971281,10.220195633971281,200.20813194851274
92.8225024248303,207.08335653633625,9.912702680064806,9.912702680064806,200.91186468213957
92.18234723569356,206.28499384111242,10.358682399081957,10.358682399081962,201.2501626992721
91.5421920465568,206.51832399883196,10.206042721808585,10.206042721808588,201.65876671587324
90.90203685742006,206.5248821187442,10.64560890630468,10.64560890630468,201.75901143417002
90.2618816682832,205.5072779454926,10.537335107168433,10.537335107168433,200.99631565310278
89.62172647914645,205.97327653368495,9.973227390694953,9.973227390694953,202.33574721052923
88.9815712900097,205.7754793887978,10.344956869718516,10.34495686971852,202.14325088904494
88.34141610087295,205.59554518257318,10.092638851776929,10.092638851776925,202.85147439484453
87.7012609117362,205.552683408721,10.38156072348401,10.381560723484004,201.86575627798882
87.06110572259945,206.49179905800264,9.99786323569838,9.997863235698379,202.41584319806213
86.4209505334627,206.45171590720483,10.542166866322567,10.542166866322566,201.59385627366632
85.78079534432595,206.18619004973425,10.594565136317948,10.594565136317948,201.6236917742002
85.1406401551892,205.86801421707216,10.234195619929533,10.234195619929533,201.85596331828094
84.50048496605245,206.0225883551126,10.493134717022583,10.493134717022581,201.51855588179868
83.86032977691559,206.0948264269825,10.138433421069383,10.138433421069381,201.89877268384828
83.22017458777884,205.04935128678392,10.293497837588868,10.293497837588863,202.2422438083695
82.5800193986421,205.27505827649304,10.546693152599003,10.546693152598998,202.52259026103556
81.93986420950534,205.8597957503365,10.554443849690326,10.554443849690326,201.9443977396544
81.2997090203686,205.48483020947657,10.382864340449695,10.382864340449695,201.71959771664936
80.65955383123185,205.84295132857594,10.549165473035766,10.549165473035766,202.090209272066
80.0193986420951,205.68588720234314,10.299760754689974,10.299760754689974,202.64364878260272
79.37924345295835,205.19454824472058,10.252473251337815,10.252473251337815,202.08241847378542
78.7390882638216,205.93797190890356,10.41791032220096,10.41791032220096,202.44263639641312
78.09893307468485,205.01958740226598,10.684747129551496,10.684747129551498,202.96899489319318
77.45877788554799,205.49202222461605,10.353319710381237,10.353319710381236,202.72511660990287
76.81862269641124,205.66296470410484,10.471871944219963,10.471871944219963,202.2120355809058
76.17846750727449,205.54501047878543,10.397581544299586,10.397581544299586,202.62616889063005
75.53831231813774,205.62693555603585,10.214588703011893,10.214588703011893,202.321901263587
74.89815712900099,204.95371273472134,10.311865118085867,10.311865118085867,202.0379000749823
74.25800193986424,206.0743065189841,10.403356023439061,10.403356023439057,202.98924824984618
73.6178467507275,205.06136243847834,10.74483486389214,10.74483486389214,202.9135610599433
72.97769156159075,205.8785817029149,10.439813882375265,10.439813882375265,202.84147158620937
72.337536372454,205.58188659019018,9.931843828001629,9.931843828001634,202.83570531829227
71.69738118331725,204.91018617482328,9.976339647543668,9.976339647543664,204.11034346725796
71.05722599418038,205.5099983534037,9.817167576525257,9.817167576525257,203.31959619657158
70.41707080504364,204.8205757617932,9.707308925108554,9.707308925108556,203.0668706730003
69.77691561590689,205.29421057937725,9.97709253368693,9.97709253368693,203.33618683880957
69.13676042677014,205.86991078771402,10.365239210258311,10.365239210258306,203.68830940387957
68.49660523763339,205.21419971107977,10.472538449993124,10.472538449993126,203.4072014919873
67.85645004849664,204.59194250748408,10.596101075009903,10.596101075009894,202.9399746159713
67.21629485935989,204.88702028152434,10.558293698965336,10.558293698965338,203.38754862473772
66.57613967022314,204.97020719930683,10.593390426655489,10.593390426655489,202.92082251937757
65.9359844810864,205.5823411218154,10.228609224931443,10.22860922493145,203.17968427740968
65.29582929194964,204.6074175134838,10.900869715427106,10.900869715427111,203.00534629120614
64.65567410281278,204.15136500782967,10.539986100552568,10.539986100552568,203.01328844668893
64.01551891367603,204.69370653772665,10.603918689679706,10.603918689679702,202.93580495732266
63.375363724539284,204.98516491107003,10.444326603295726,10.444326603295718,202.70918280696762
62.735208535402535,204.20669502851126,10.731225239941619,10.731225239941619,203.3983598079004
62.095053346265786,204.37024068521615,10.396387565210446,10.396387565210453,202.67382509418286
61.45489815712904,204.52613662038013,10.886508067042755,10.886508067042755,203.21018910522258
60.81474296799229,204.7543480609671,10.688363170370032,10.688363170370032,203.69613933746996
60.17458777885554,204.37750487787144,10.953502097102616,10.953502097102616,202.75967728232538
59.53443258971879,204.30292911645597,10.86886979126442,10.86886979126442,203.27488000042024
58.89427740058204,203.5549751368023,10.884606151106993,10.884606151106993,202.87883315830703
58.25412221144518,204.32997570328715,10.588066476401215,10.58806647640122,203.09592388332612
57.61396702230843,204.67934143592896,10.397482905790639,10.397482905790639,203.53843204516232
56.97381183317168,203.4455695776659,11.072184174411262,11.072184174411262,203.19326708649928
56.33365664403493,204.09855421647816,9.916151900843728,9.916151900843724,204.64535130428197
55.69350145489818,203.82832318433563,11.093588869192844,11.093588869192839,203.86515758527884
55.053346265761434,204.39196090366175,11.006811252954257,11.00681125295426,203.89172529669415
54.413191076624685,204.58873078360236,10.503631340625507,10.503631340625505,203.93233884980148
53.773035887487936,204.44594589793599,10.467361398017323,10.467361398017315,203.91253251886323
53.13288069835119,204.42942088268546,10.574822719600489,10.574822719600494,204.31389029838633
52.49272550921444,203.95703558549462,10.522937425744269,10.522937425744269,203.887867389124
51.852570320077575,203.90890548578406,10.593247493219812,10.593247493219812,203.16862235636478
51.212415130940826,204.34638406965334,10.733220389510855,10.733220389510848,203.55851631464245
50.57225994180408,203.47932742708826,10.542294680078253,10.542294680078252,204.09280769601702
49.93210475266733,203.58277267617774,10.6698023681005,10.669802368100493,203.80467132579648
49.29194956353058,203.75463580126802,11.073853952293566,11.073853952293566,203.29452993091925
48.65179437439383,203.84119202917364,10.429226532804725,10.429226532804728,204.05862253305537
48.01163918525708,204.72688692532063,10.228873582438567,10.228873582438567,204.24743771527528
47.37148399612033,204.61679502548182,10.325895028904956,10.325895028904956,204.34024437633585
46.73132880698358,204.42952371734046,10.137086536370383,10.137086536370383,204.6685573729469
46.091173617846835,203.24745467050715,10.467763248939223,10.467763248939223,204.8816807046459
45.45101842870997,204.2616421580578,10.372516609953403,10.372516609953397,204.52659510278673
44.81086323957322,203.94379895059726,10.624950541832394,10.624950541832396,203.83244809181664
44.170708050436474,203.32955765160025,11.057787726721763,11.057787726721763,205.04563640694874
43.530552861299725,203.48356063053575,11.255727383372317,11.255727383372317,204.66462237318945
42.890397672162976,204.17541214106384,10.409096730369752,10.409096730369752,205.26014228104023
42.25024248302623,204.30273353529407,10.809801018995536,10.80980101899553,205.67432234504798
41.61008729388948,204.7157853394328,10.177920367597983,10.177920367597983,205.41807050297857
40.96993210475273,204.35815561972674,10.239980472576914,10.239980472576914,205.20410044043916
40.32977691561598,204.5281114914161,10.071757548491629,10.071757548491624,205.7233505022685
39.68962172647923,204.19824336405753,10.754070672945758,10.75407067294576,205.2213549178174
39.04946653734237,203.82735370626386,10.620074772960239,10.620074772960239,205.45775741882326
38.40931134820562,204.39520845932523,10.260559720927631,10.260559720927631,204.94955054337464
37.76915615906887,204.068965955424,10.367499269267277,10.367499269267277,205.82711967219691
37.12900096993212,204.47824628190415,10.33632207931637,10.336322079316368,206.36479176757524
36.48884578079537,204.30449746534964,10.514942849742477,10.51494284974247,205.85282325354316
35.848690591658624,204.31248184443209,10.601746655271926,10.60174665527192,205.8716772743605
35.208535402521875,204.07958884552502,10.710409695656333,10.710409695656335,206.04697688647576
34.568380213385126,204.06108381712352,10.01548259912867,10.01548259912867,206.48681639894357
33.92822502424838,204.26059289178608,10.163632329300901,10.1636323293009,205.0190361505337
33.28806983511163,203.56840702699455,10.533639344013803,10.533639344013798,206.2444843244586
32.647914645974765,204.08640089329006,10.603075907370552,10.603075907370556,205.78447792289498
32.007759456838016,203.81686683136562,10.492531660078537,10.492531660078543,205.63888256090573
31.367604267701267,203.21987646213577,10.51514655539861,10.515146555398614,206.00029050916243
30.72744907856452,203.2002411110245,10.779085506892022,10.779085506892018,206.36981622361884
30.08729388942777,203.88011258810246,10.239438046735115,10.239438046735115,205.73612946233095
29.44713870029102,203.7299533310396,10.215761513126731,10.215761513126731,206.10790373329823
28.80698351115427,203.09970894498258,10.754110340481512,10.754110340481512,205.51143844134577
28.166828322017523,203.74607911922035,10.504554653334923,10.504554653334914,207.02641270285903
27.526673132880774,203.55394988833476,10.422420600717052,10.422420600717052,206.4167444387143
26.886517943744025,203.4765917906966,10.557235485710926,10.557235485710926,206.02714843756087
26.246362754607162,203.55528569831057,10.495172383287393,10.495172383287393,206.89215551968897
25.606207565470413,202.1445115853556,10.792781689299726,10.792781689299732,206.83219698049604
24.966052376333664,203.54537492169453,10.772848801201443,10.772848801201443,205.83222688054337
24.325897187196915,203.53881779580334,10.459306661415326,10.459306661415326,206.82820318042752
23.685741998060166,203.77318235010318,10.387055557693962,10.387055557693966,207.65770658802882
23.045586808923417,203.7267785792472,9.845097056783208,9.845097056783214,207.62468344013078
22.40543161978667,203.33453200443296,10.392074829885901,10.392074829885901,206.9520457517656
21.76527643064992,204.3189189461973,10.157522848595553,10.157522848595553,207.3772476859081
21.12512124151317,204.105767923752,10.210088257474034,10.21008825747404,207.05419840406148
20.48496605237642,203.56722620513216,10.513780598654963,10.51378059865496,206.762511558007
19.84481086323956,203.09011145201418,10.357455697154865,10.35745569715487,207.15695573348935
19.20465567410281,203.50857652623063,10.504265354636269,10.504265354636264,207.83767316385016
18.56450048496606,203.62208695917565,10.20299192136604,10.202991921366035,208.006389958477
17.924345295829312,203.8278551966572,10.314151385742246,10.314151385742246,208.10614930090762
17.284190106692563,204.00948527022126,10.027869672934843,10.02786967293484,207.55720098041712
16.644034917555814,203.72126091467914,10.554987561744138,10.554987561744142,208.06414219039277
16.003879728419065,203.59280646842885,9.847264484293879,9.847264484293879,207.67698249439866
15.363724539282316,203.34095837399923,9.898231476518568,9.898231476518577,208.52288217711867
14.723569350145567,203.48010147206554,10.123611837149179,10.12361183714918,207.75531692271224
14.083414161008818,203.230831426236,10.36600534461385,10.366005344613848,207.95000408567535
13.443258971871956,204.2883333730633,9.730861526359574,9.730861526359574,208.48620244550304
12.803103782735207,203.59410069226413,10.215731882269665,10.215731882269665,208.50404673615955
12.162948593598458,203.66161407567745,9.87866580139891,9.878665801398911,208.0543297912816
11.522793404461709,203.4144773752692,10.21764713890967,10.21764713890967,208.47064981431222
10.88263821532496,203.2231553934793,10.38500242420415,10.385002424204144,209.01449642421034
10.24248302618821,203.50892154751574,10.383445088319075,10.383445088319075,207.71978578977303
9.602327837051462,203.50155674774234,9.953279467108255,9.95327946710826,208.20071839871858
8.962172647914713,203.86291557018617,9.87437227034625,9.87437227034625,208.64316190191198
8.322017458777964,203.60849254201193,9.876733984413441,9.87673398441344,209.14395502757688
7.681862269641215,203.14111237887764,10.445686096691395,10.445686096691395,207.87779058506726
7.041707080504352,203.37308632453775,9.42689114947915,9.426891149479145,208.40233709964113
6.401551891367603,203.60638563140216,10.101826962882146,10.101826962882146,209.25713108435212
5.761396702230854,203.47981944772738,10.222493484601054,10.222493484601053,208.45896312442295
5.121241513094105,202.41122398546776,9.964659078315877,9.964659078315877,209.3613776361868
4.481086323957356,202.83648062401147,10.183973425753175,10.183973425753175,208.85148756311878
3.8409311348206074,203.60263694560035,9.932190832823968,9.932190832823968,209.15780034813585
3.2007759456838585,203.17664944503997,9.950340167752657,9.950340167752655,209.39166095188017
2.5606207565471095,203.25940190305596,9.946573714255354,9.946573714255349,209.4076324702446
1.9204655674103606,203.4796616102872,10.119523253682392,10.119523253682393,208.94516027649965
1.280310378273498,203.58592073354455,10.223269781138738,10.223269781138743,209.43286776530266
0.640155189136749,203.89787173746987,9.820000904932186,9.820000904932181,208.78520013759808
0.0,203.40462597119065,10.03057157596294,10.030571575962945,208.91978615115582
