z in mm,sigma xx in mm2,sigma xy in mm2,ysigma yx in mm2,sigma yy in mm2
0.0,142.55864995968696,18.032507232408676,18.032507232408676,156.03761768714142
0.5978260869565217,143.32290270210365,17.78834820637407,17.788348206374078,156.44513574085823
1.1956521739130435,143.44758772368655,17.833505526027235,17.833505526027235,156.69900102603663
1.7934782608695652,143.77501347946708,17.831297621103758,17.83129762110376,157.20233313477638
2.391304347826087,144.5910218624361,17.66134725419162,17.66134725419162,157.81142925124746
2.9891304347826084,144.3013565392317,17.85141521222143,17.85141521222143,157.16694238905328
3.5869565217391304,143.9295283400027,17.565584342747396,17.565584342747403,157.04426457534254
4.184782608695652,145.13127615375507,17.669391970940325,17.669391970940318,158.07351266388702
4.782608695652174,146.21374842217904,16.75535516176082,16.755355161760825,159.33489518494082
5.380434782608695,145.98178453127437,16.703429666743123,16.703429666743123,159.78219281374083
5.978260869565217,145.45167568739754,16.811861274369193,16.811861274369193,157.5076804570951
6.576086956521739,145.6723481064825,17.418484628736856,17.418484628736856,159.12070714687582
7.173913043478261,145.33304634466836,17.502407691224366,17.502407691224366,159.53116568616716
7.771739130434782,145.42887370341208,17.30100672006665,17.30100672006665,159.61270527669262
8.369565217391305,144.00489137898407,17.79009671052855,17.79009671052854,158.42533774812205
8.967391304347826,143.9319914450618,17.572482680705708,17.572482680705708,158.0214148921377
9.565217391304348,144.97313872771556,17.16648447059394,17.166484470593936,158.7853517917794
10.16304347826087,145.6307456389422,17.67131337655504,17.67131337655503,159.21037646426024
10.76086956521739,144.77844095863833,17.143893847990668,17.143893847990668,159.28326335886717
11.358695652173912,144.3293933464621,17.44228669703156,17.442286697031566,157.75430158778354
11.956521739130434,146.16114472715887,17.391178399106035,17.391178399106032,158.62782245792187
12.554347826086957,147.06838992017634,16.755958245341183,16.755958245341183,157.95188379795488
13.152173913043478,146.35145233760073,17.51608439866911,17.516084398669104,158.4546418413519
13.75,145.3069249655271,17.308624876754806,17.308624876754813,159.35598738378567
14.347826086956522,145.81245089089705,16.959467521279855,16.95946752127986,159.3305922859966
14.945652173913043,147.27052765043172,17.03414532422572,17.034145324225715,158.95576461700816
15.543478260869565,146.09327095621327,17.34551814515496,17.345518145154962,158.4919923886709
16.141304347826086,145.59327497822105,17.54428953177746,17.544289531777466,160.21390198677213
16.73913043478261,146.84044391601924,17.302731913687904,17.302731913687907,158.4730582144409
17.33695652173913,147.18919103472422,16.64194095065901,16.641940950659006,160.03813311908166
17.934782608695652,146.83025412015198,16.624100754269385,16.62410075426938,159.4044275899863
18.532608695652172,145.87926185632352,16.327448137614184,16.32744813761418,160.19078970239505
19.130434782608695,147.14421886464174,16.400988672984194,16.40098867298419,159.81734595197432
19.72826086956522,146.90387025185547,17.445451655870155,17.445451655870155,158.3714232461462
20.32608695652174,147.29934621103936,17.6970655022467,17.697065502246705,159.66659884898806
20.92391304347826,148.06142172375607,17.257105169828982,17.257105169828982,159.45326740037675
21.52173913043478,148.70210300232637,17.136823594233345,17.136823594233345,159.3729619571377
22.119565217391305,148.63243375624748,16.80287702975236,16.80287702975236,159.0910503480683
22.717391304347824,148.1563905661924,16.78237139764775,16.782371397647747,159.9032668686624
23.315217391304348,148.66401329835287,17.194689211150163,17.19468921115016,158.88861178261752
23.913043478260867,149.66763240053285,17.08870112118625,17.08870112118625,158.86533829791932
24.51086956521739,149.8777645356296,16.98170475631971,16.981704756319715,159.74168802933258
25.108695652173914,149.39150282401962,16.861909353284183,16.861909353284183,159.96408487588164
25.706521739130434,150.04516334270437,17.06468924521593,17.064689245215924,158.70949720656722
26.304347826086957,148.126637849384,16.660142012325583,16.660142012325586,159.50952310158837
26.902173913043477,150.15067174302482,17.26602933104892,17.266029331048927,160.6262678133865
27.5,149.54106287006715,16.712948431309883,16.712948431309883,160.0994037451397
28.09782608695652,149.09951184888325,16.32258051974566,16.322580519745667,160.0783091247053
28.695652173913043,149.50261129794941,16.96173691582649,16.9617369158265,160.34142338754182
29.293478260869566,148.67137236788088,16.960042854062856,16.960042854062863,160.3226108457759
29.891304347826086,150.34410300145476,16.785878447850614,16.785878447850607,161.39515447715974
30.48913043478261,150.0507888962474,16.985062464207285,16.985062464207285,159.04415538349272
31.08695652173913,149.7589420779464,16.64422430981896,16.644224309818963,160.30913840607434
31.684782608695652,150.42002643266852,16.624743502684463,16.624743502684463,158.47204090004942
32.28260869565217,151.90705148494465,17.04230094429048,17.04230094429048,160.2940812023151
32.880434782608695,150.09634786771912,16.53846731066266,16.53846731066266,158.85857865739982
33.47826086956522,151.15007927441968,17.298443170714542,17.298443170714545,159.02283621008306
34.07608695652174,151.00547992410287,16.48499286266952,16.48499286266953,160.0901973827205
34.67391304347826,151.00529818639595,16.56386933059747,16.563869330597466,159.75260637381837
35.27173913043478,150.59059214008096,16.310815753109633,16.310815753109633,158.94014649037484
35.869565217391305,150.49008593605976,16.670862151589784,16.67086215158978,159.934621783888
36.46739130434783,151.5395303235672,16.324353028218425,16.324353028218425,158.4995524070679
37.065217391304344,152.03207724084,16.205187872801293,16.205187872801293,159.30682024682977
37.66304347826087,152.53428503640643,16.260491352997292,16.260491352997292,160.49803700088052
38.26086956521739,152.202925985385,16.065314270788853,16.06531427078886,160.15955896534746
38.858695652173914,152.58312543399236,16.240296148564713,16.240296148564713,159.98074142212505
39.45652173913044,153.1057799831985,16.179265073514937,16.179265073514937,160.88550033779435
40.05434782608695,153.3158088483381,16.40326658761401,16.40326658761401,159.4887222156041
40.65217391304348,153.71456458951351,16.76346314728238,16.76346314728238,161.2588927501068
41.25,154.53075241686292,16.580492968495992,16.580492968495992,161.43056917740364
41.84782608695652,153.37848670628122,16.53378661684248,16.53378661684248,160.67029523437157
42.44565217391304,154.31879730531458,15.682123622878846,15.682123622878846,162.2582675137052
43.04347826086956,154.80328636625345,15.708308189466923,15.708308189466928,162.250177552219
43.641304347826086,155.83933683761828,16.33913094213615,16.33913094213615,160.2306253095614
44.23913043478261,156.89907450190543,16.621945169147168,16.621945169147168,161.78416190779845
44.83695652173913,156.1278807877752,15.472518067327966,15.472518067327972,161.62652566755833
45.43478260869565,155.71890760891873,15.652444958917648,15.652444958917656,162.18598465459488
46.03260869565217,157.85258909314229,16.10194086238024,16.101940862380236,163.2900846531011
46.630434782608695,155.19407690358713,16.08640635595062,16.08640635595062,163.31043272847836
47.22826086956522,156.35020805232475,15.647683536664067,15.64768353666406,162.23146454880236
47.826086956521735,156.48366972163993,16.065056934150082,16.065056934150082,161.66257004834296
48.42391304347826,157.61105873542127,15.432534296229068,15.432534296229072,161.4805644222841
49.02173913043478,156.0551743712142,15.186313328860411,15.186313328860411,161.4527701362862
49.619565217391305,156.4299130156826,15.629133010524598,15.629133010524598,161.2438161918044
50.21739130434783,156.57571574494,16.184396588939745,16.184396588939745,161.65572671049213
50.815217391304344,155.9611642254758,15.650278418523635,15.650278418523643,162.44010371401612
51.41304347826087,155.83614691277737,15.576631867627754,15.576631867627754,161.71934850145564
52.01086956521739,156.5599853902614,15.954684180689208,15.954684180689204,160.4175244842704
52.608695652173914,157.04597325128069,15.576945633242621,15.576945633242625,160.6286556023617
53.20652173913044,156.7683125440175,15.865440164682957,15.865440164682957,161.1492529443008
53.80434782608695,158.66223305152917,14.950057437089002,14.950057437089002,161.8887463705667
54.40217391304348,159.61663496721698,15.307310575753666,15.307310575753666,162.4792800753056
55.0,159.12821865537222,15.713876561292615,15.713876561292622,162.03277658013815
55.59782608695652,158.6334224543841,15.13386125392454,15.13386125392454,160.64457942140479
56.19565217391304,158.41790504092782,15.831327980643088,15.831327980643088,160.19346887531822
56.79347826086956,157.96989546559888,14.9651690858963,14.9651690858963,160.84494639260245
57.391304347826086,156.51575901063256,15.495041123374325,15.495041123374317,161.35764276238436
57.98913043478261,157.69669289395674,15.953651135287613,15.953651135287613,160.15205317013454
58.58695652173913,158.13938267466986,16.21486305382654,16.21486305382654,161.3685432340818
59.18478260869565,158.4725140758214,14.966945093855525,14.966945093855522,161.64466733205487
59.78260869565217,158.42266879392318,15.241070250418232,15.241070250418232,161.0675038689671
60.380434782608695,158.93916923768404,15.187829755523781,15.187829755523781,160.19674248224354
60.97826086956522,158.29763194563412,16.024084064195307,16.024084064195307,159.80082000408376
61.576086956521735,158.74401041675102,15.93051238612841,15.93051238612841,161.9999408783876
62.17391304347826,159.121825587252,15.662474734127883,15.662474734127889,162.59389500151354
62.77173913043478,158.25482689448123,15.625986504459988,15.625986504459988,163.45945325690127
63.369565217391305,157.96948535496313,15.874558146948319,15.874558146948313,161.04469488265002
63.96739130434783,158.79149254972833,15.241069776784874,15.241069776784878,162.5090536994618
64.56521739130434,159.00831385475524,15.915568370668533,15.91556837066853,162.75431735678603
65.16304347826087,159.66644207355395,15.372862537873955,15.372862537873958,162.0556319347428
65.76086956521739,160.07844615450742,15.795477459170074,15.79547745917007,162.2513809458924
66.3586956521739,159.07617238805813,15.532258889308654,15.532258889308658,161.9751655030645
66.95652173913044,159.86730400751026,15.82822356404992,15.828223564049917,161.44370938279081
67.55434782608695,159.1997439424587,15.527930177465514,15.527930177465514,161.94041815873314
68.15217391304348,161.73893669214962,14.810812000916037,14.810812000916034,162.56869628972322
68.75,160.19531703393372,15.683173507037884,15.68317350703788,162.33596832205686
69.34782608695652,160.6146498511671,14.631587470243026,14.631587470243026,162.5446303927264
69.94565217391305,161.7619328679649,14.676002969787895,14.676002969787895,160.95814266130193
70.54347826086956,162.2491997194042,14.59445241965868,14.594452419658682,162.25982735000102
71.14130434782608,160.5333456327765,15.554410817390924,15.554410817390924,159.4357667170781
71.73913043478261,163.200697577228,14.720721403882663,14.720721403882667,162.00818681662798
72.33695652173913,162.38054480056522,15.375194805964863,15.375194805964863,162.1993395533662
72.93478260869566,162.03421212365328,15.05240237937339,15.052402379373397,161.89840356013636
73.53260869565217,163.25559062719043,15.430133795949667,15.430133795949665,161.66520887360517
74.13043478260869,161.52577224074219,15.24395021627695,15.243950216276954,161.13519307427492
74.72826086956522,163.1972901600176,14.896427737352226,14.89642773735223,161.61010618627606
75.32608695652173,163.56444401477916,15.171004164677077,15.17100416467708,162.72550538167286
75.92391304347827,164.5787664978029,14.963830555266593,14.963830555266593,164.16006403772434
76.52173913043478,164.34431173894754,14.527369449577243,14.527369449577249,164.10300965566506
77.1195652173913,164.12609700532096,14.55983111832041,14.559831118320409,162.8746781214933
77.71739130434783,162.96429284239886,14.31761376902577,14.317613769025769,162.6419602537273
78.31521739130434,162.58232934279832,14.72548415237061,14.725484152370614,163.47121361611298
78.91304347826087,162.7361139453504,15.477663597652828,15.477663597652828,163.42064282757167
79.51086956521739,163.76380452188866,14.28606748327801,14.286067483278009,164.0982019268074
80.1086956521739,164.5875390517782,14.69496500965976,14.694965009659763,162.62465367213915
80.70652173913044,164.0683410866807,14.464874819957158,14.464874819957158,162.88656517349656
81.30434782608695,164.46332002664127,14.673253239182968,14.673253239182971,162.30737523202689
81.90217391304348,163.80724221474844,14.530945789269934,14.530945789269934,162.5467884325733
82.5,164.41411346953126,14.266773761143492,14.266773761143492,164.3206554663073
83.09782608695652,164.1295092344732,14.935185336114406,14.935185336114412,161.706482050293
83.69565217391305,164.16511655086063,14.5106133787029,14.5106133787029,161.71714917891316
84.29347826086956,165.54366565663344,14.5283552238317,14.528355223831701,162.52199530624375
84.89130434782608,162.36597368788136,15.129915648557379,15.129915648557379,162.219345470262
85.48913043478261,163.9815800648797,14.391329076887455,14.391329076887454,162.74467470714018
86.08695652173913,163.49244234778752,14.846724555038595,14.846724555038596,162.19671659410685
86.68478260869566,164.23111146136586,14.00563294745676,14.00563294745676,163.04947546257256
87.28260869565217,165.43125459339524,14.274240371000905,14.274240371000905,161.80260732662327
87.88043478260869,166.00208002659906,14.258278644057086,14.258278644057086,163.62044207817885
88.47826086956522,164.70871339824654,14.03571804173352,14.035718041733515,163.39067693877678
89.07608695652173,164.29352058780873,13.840395785223341,13.840395785223334,163.19778366380712
89.67391304347827,165.69742763684943,14.04064075596707,14.040640755967072,163.90215114837028
90.27173913043478,165.80215698242145,14.27563882514576,14.27563882514576,161.50219713419912
90.8695652173913,166.61112113627354,14.283358141528794,14.283358141528794,161.66331196574296
91.46739130434783,166.50772158019439,13.960977104699195,13.960977104699195,162.71931186925235
92.06521739130434,165.27779209246142,14.72394839956989,14.72394839956989,162.79351225911148
92.66304347826087,165.87668447763153,13.553975889080656,13.553975889080652,163.46527882310946
93.26086956521739,166.72873748358975,14.033960317132706,14.033960317132706,163.4958754948161
93.8586956521739,167.3882055543005,14.095241490008416,14.095241490008409,162.8936591303517
94.45652173913044,167.7092643145819,13.714091549699104,13.7140915496991,163.64501282998003
95.05434782608695,168.2002649417508,13.85101206593818,13.85101206593818,163.6801096004428
95.65217391304347,168.69766941366703,13.0226189928071,13.0226189928071,165.02509869963617
96.25,168.83976625888715,13.746360682884454,13.746360682884454,163.70327349366218
96.84782608695652,167.30995760808958,14.103378325164728,14.103378325164728,163.10674716294142
97.44565217391305,167.05704400499124,13.684530864494493,13.684530864494493,161.8362719319431
98.04347826086956,167.78373796853708,13.954844608807194,13.954844608807194,164.3881243762153
98.64130434782608,167.37853320447238,13.525377520945046,13.525377520945046,163.65081037168525
99.23913043478261,168.3608480914074,13.170855384250665,13.170855384250661,163.63731868715263
99.83695652173913,167.07195369421856,14.261904096760048,14.261904096760045,163.43674305643853
100.43478260869566,168.46417792932843,13.67468881147811,13.674688811478111,163.26173080465304
101.03260869565217,169.13991704306716,13.461217591111378,13.461217591111382,164.03794985469455
101.63043478260869,168.75248038677472,13.969077792901405,13.969077792901404,163.59244564459456
102.22826086956522,170.186587685885,13.723603161280446,13.723603161280439,163.0790232038717
102.82608695652173,168.5197338949605,13.890761919965056,13.890761919965056,164.58919967221757
103.42391304347827,169.32640885639213,13.586205091668154,13.586205091668157,164.44609674221854
104.02173913043478,168.73049294177167,13.991469624013401,13.991469624013407,164.1137494200689
104.6195652173913,169.0057576224179,13.085122709252401,13.085122709252401,164.16448509093104
105.21739130434783,168.06514455850143,13.71155209401741,13.711552094017408,162.94057857026192
105.81521739130434,169.21167603179344,13.464119744508933,13.464119744508938,163.40618539152504
106.41304347826087,169.3227800373945,13.897042858302054,13.897042858302054,163.88025298410693
107.01086956521739,169.87713018098495,13.545747250304078,13.545747250304078,164.3840234113068
107.6086956521739,169.29741232394997,13.788615999164966,13.788615999164966,163.8879695926754
108.20652173913044,170.41744576628363,13.754692258574002,13.754692258574002,163.80745618585968
108.80434782608695,169.3710429287325,14.012657203198222,14.012657203198223,162.91714973686732
109.40217391304347,170.1161429962361,13.523667797322851,13.523667797322858,163.80314816381866
110.0,170.36301066068165,13.34686677355768,13.346866773557677,164.377646179419
110.59782608695652,171.90029506172198,12.847130091012371,12.847130091012366,165.3402875845321
111.19565217391305,170.1889711785264,13.488088943727131,13.488088943727128,165.6179304451961
111.79347826086956,171.33226572368918,13.435881880197385,13.435881880197385,164.8179982324162
112.39130434782608,171.44257874653613,13.14097687971724,13.14097687971724,165.45799254052147
112.98913043478261,171.29729753545516,13.468338399551898,13.468338399551902,164.53894697312035
113.58695652173913,170.94589040195933,13.932848015965423,13.932848015965423,161.62988950398034
114.18478260869566,171.3899566371835,13.673031471181925,13.67303147118192,164.27668248880033
114.78260869565217,170.73328540757024,13.079040181668523,13.079040181668523,164.52267337563407
115.38043478260869,169.8657832532913,13.998639598460999,13.998639598461004,162.18535902986198
115.97826086956522,170.48456723013234,13.558679279433992,13.558679279433989,165.0045264102227
116.57608695652173,170.2753007999809,13.446354588542377,13.446354588542377,163.47747485405122
117.17391304347827,170.67128807091123,13.729131273664184,13.729131273664184,163.77126918742422
117.77173913043478,170.96226152473966,13.54816959028001,13.54816959028001,163.38582743056446
118.3695652173913,170.56398638245858,13.431492668731313,13.431492668731313,164.06103243797918
118.96739130434783,171.95594549390933,12.822269413572231,12.822269413572227,164.21536566330775
119.56521739130434,173.9788022376702,12.878781777173101,12.878781777173105,164.92292196101906
120.16304347826087,173.162022018725,12.505010490343968,12.505010490343974,166.35536866061113
120.76086956521739,174.22663374814087,12.320443434380456,12.32044343438045,166.64613908125398
121.3586956521739,173.70093377328467,12.342967221005322,12.342967221005319,166.74026309336722
121.95652173913044,173.90234409600905,12.062012434671534,12.062012434671534,165.22988983154636
122.55434782608695,171.7153686750591,13.314107193178137,13.314107193178137,164.68838435803116
123.15217391304347,172.44469868409465,12.70652264976296,12.70652264976296,165.6089375914476
123.75,173.90231393020548,11.778712435241323,11.77871243524132,163.7695108149544
124.34782608695652,172.44861139645616,13.084424885005607,13.084424885005609,163.61217172490083
124.94565217391305,175.79495778696415,12.037949714405954,12.037949714405952,167.33181344598884
125.54347826086956,174.55318186967753,11.943631828579619,11.943631828579626,166.4908608554448
126.14130434782608,174.0732497048471,13.118719399179978,13.118719399179978,165.9589385422485
126.73913043478261,173.77239633902613,12.885045664136722,12.885045664136722,165.69999622739866
127.33695652173913,174.46063477617048,12.243098404701213,12.24309840470121,165.4873412109771
127.93478260869566,175.23183990405218,12.448516752487276,12.448516752487276,165.6972239907423
128.53260869565216,175.9162276576374,12.257221781873671,12.257221781873671,165.78088466147582
129.1304347826087,175.47853439807878,12.091659718204244,12.091659718204244,165.6572538553317
129.72826086956522,175.80890675827035,11.975056611095846,11.97505661109585,165.2505347377183
130.32608695652175,176.7866053322549,12.477561498605386,12.477561498605391,164.61047510340808
130.92391304347825,175.9271850036418,12.009799806810229,12.009799806810225,165.49000632188407
131.52173913043478,176.14055604227872,11.539309570075064,11.539309570075067,167.02167160860498
132.1195652173913,174.48646918838898,12.414661444948596,12.4146614449486,165.96554575370666
132.7173913043478,174.85065448185935,12.566696799449542,12.566696799449543,165.56146577908072
133.31521739130434,176.67381726023078,12.187273797742977,12.187273797742973,166.31314421525445
133.91304347826087,176.2327532968349,12.189792401194007,12.18979240119401,165.59833468100763
134.51086956521738,176.41477473457783,12.23326328604496,12.23326328604496,165.56220189920577
135.1086956521739,176.6984892443125,12.053337768939395,12.053337768939393,164.97788943313785
135.70652173913044,177.0764082077359,11.929506010334347,11.929506010334338,166.3587591826821
136.30434782608697,176.37957438485276,12.498281456644422,12.498281456644426,166.90604996530473
136.90217391304347,176.2162573824292,11.868061058057084,11.868061058057084,166.3488123586279
137.5,176.71497824201825,11.687365901794502,11.687365901794502,165.6304746680081
138.09782608695653,177.05482833187344,11.545015643654843,11.545015643654839,167.4424190327124
138.69565217391303,177.25197073153285,11.443379964374904,11.443379964374902,167.2767152192387
139.29347826086956,177.87192197142753,11.289826004555533,11.28982600455553,166.18059543232508
139.8913043478261,177.53268233802967,11.306496065178006,11.306496065178003,166.65038394864078
140.4891304347826,176.85450136883958,10.700266015084331,10.700266015084335,166.68073246654407
141.08695652173913,177.71809879811286,11.67219485003966,11.672194850039658,166.0612601693005
141.68478260869566,177.72892923644008,11.121189279338555,11.121189279338555,167.1304698448859
142.28260869565216,178.61043512546476,11.534596864730622,11.534596864730618,168.39027313800207
142.8804347826087,178.6119674549562,10.400275950835946,10.400275950835946,168.4733404504469
143.47826086956522,180.0748919313142,10.436760658871853,10.43676065887185,167.1377825510135
144.07608695652175,179.26905584745714,10.56942869576063,10.56942869576063,168.7230792025514
144.67391304347825,179.83017671071661,11.152057205863267,11.15205720586327,167.24926404511493
145.27173913043478,178.58465965799832,11.534767754710376,11.534767754710375,168.5623207541663
145.8695652173913,179.85808307476466,11.0230687465529,11.0230687465529,167.25970317064883
146.4673913043478,180.62946151411634,10.250260530127296,10.250260530127301,167.52655529184003
147.06521739130434,178.7013176924485,11.321095950504885,11.321095950504883,166.9415281110835
147.66304347826087,179.00123223402977,10.89587399630081,10.895873996300812,168.48764789997702
148.26086956521738,179.56435854939286,10.183876803573492,10.183876803573495,167.71650475537268
148.8586956521739,179.54410190709712,10.72770706224904,10.72770706224904,167.57872940850424
149.45652173913044,180.20347930051253,10.019060477026125,10.019060477026121,168.26568222991176
150.05434782608697,180.74422185220223,11.03888487983243,11.03888487983243,167.12143157381362
150.65217391304347,180.3731156369911,11.120803191265491,11.120803191265487,167.25673995577446
151.25,179.26325323934748,10.89648585192013,10.896485851920133,167.216024135122
151.84782608695653,180.29879524344693,11.166683940395837,11.166683940395835,166.75116344952866
152.44565217391303,180.41603444673166,10.994580471721713,10.994580471721711,166.51702844371255
153.04347826086956,179.27135894208774,11.404397845571802,11.404397845571802,165.6286948492013
153.6413043478261,178.99750138896974,10.9122742790605,10.912274279060506,167.91329324597123
154.2391304347826,181.07951881191659,10.400501428665873,10.400501428665873,168.40910981514065
154.83695652173913,180.75035421828886,10.48572121620405,10.48572121620405,168.99642409509107
155.43478260869566,180.16796097576025,10.939715840552644,10.939715840552644,167.5184116245817
156.03260869565216,181.66457419092805,10.907163582794746,10.907163582794746,167.4784719248679
156.6304347826087,182.14487675617033,10.248862218213327,10.248862218213324,166.81756114552238
157.22826086956522,180.86798527012806,10.616718138434624,10.616718138434617,167.14516431098855
157.82608695652175,180.36852743838068,10.71455692677297,10.71455692677297,167.66743302511148
158.42391304347825,181.9592334053706,10.331945967438122,10.331945967438118,169.17240890784427
159.02173913043478,181.66746687809703,10.07354853337822,10.073548533378222,168.3501359696525
159.6195652173913,181.4489276223364,9.91673517320864,9.916735173208643,168.4273982774524
160.2173913043478,181.31875124313575,10.11846200308217,10.11846200308217,168.92316371177606
160.81521739130434,181.97250862078667,10.432009325574104,10.432009325574107,168.1940492511133
161.41304347826087,180.50307400773315,10.668270820613516,10.668270820613515,168.28767519385036
162.01086956521738,180.61100578147548,10.267274913064426,10.267274913064426,169.38396200976194
162.6086956521739,180.33507513846482,10.614909368855031,10.61490936885503,169.1767641922836
163.20652173913044,181.5750628990799,10.586673191010819,10.586673191010815,167.065057928937
163.80434782608697,181.97178522687335,10.436044250556778,10.436044250556776,167.88148343446375
164.40217391304347,180.5144546506207,10.599058299706556,10.599058299706558,166.66585777076375
165.0,182.33452656696878,10.602761120521,10.602761120521,167.33041686657103
165.59782608695653,182.15826412467487,10.055804410489033,10.055804410489033,167.40278409149374
166.19565217391303,182.11866421068547,10.377202733995082,10.377202733995082,168.0191010112391
166.79347826086956,183.25265576665905,10.291357354106067,10.291357354106061,167.62335014074512
167.3913043478261,181.6274279391193,10.670473114511186,10.67047311451118,165.3627494423727
167.9891304347826,178.95486482705786,10.884334274687273,10.884334274687273,167.87681196723227
168.58695652173913,180.71342060320927,10.943117351040256,10.943117351040257,166.90567859047107
169.18478260869566,180.90767555971874,10.801534096751253,10.801534096751245,167.9410691512556
169.78260869565216,181.1280635994303,10.850431258624956,10.850431258624956,168.1333103329703
170.3804347826087,180.75503003482922,10.421606768827642,10.421606768827642,167.6800149538735
170.97826086956522,182.23536661814512,11.513302381911362,11.513302381911362,168.70537051470407
171.57608695652175,182.21571513361437,10.187723555269232,10.187723555269232,168.1538204210921
172.17391304347825,182.0400015857317,9.858741247821111,9.858741247821111,168.1169824463277
172.77173913043478,183.25536090096813,9.947606068422166,9.947606068422166,168.020600978414
173.3695652173913,183.14325577718682,9.589691704618632,9.58969170461863,167.78398517918504
173.9673913043478,183.30308212854632,10.623085977892607,10.623085977892611,166.72816070726702
174.56521739130434,183.33400483062923,9.702714211451028,9.70271421145103,169.28708574109936
175.16304347826087,183.6231806872119,10.175945748549866,10.175945748549864,168.51141360091006
175.76086956521738,183.42318129550026,9.942724625987697,9.942724625987701,168.9169903654954
176.3586956521739,183.8754583012286,9.864990074899671,9.864990074899673,169.75188109145856
176.95652173913044,185.15648503627665,9.900747912204784,9.900747912204778,168.9137060296642
177.55434782608697,184.93446685498853,9.443710853799239,9.443710853799246,169.0607757087149
178.15217391304347,184.2122251808822,9.58674095738394,9.58674095738394,169.04742302337
178.75,183.79318421048922,10.359655594461126,10.359655594461124,168.0595598505547
179.34782608695653,184.35762998353007,10.332510461110418,10.332510461110422,168.29736597587953
179.94565217391303,184.59658866929158,9.844058196575702,9.844058196575702,168.98505667700925
180.54347826086956,185.94232876798168,9.766192572455529,9.766192572455529,168.16341899177658
181.1413043478261,184.83456634815377,9.963578699207854,9.963578699207858,169.35523268907707
181.7391304347826,184.94431144145142,10.151706132764476,10.15170613276448,169.28209959255832
182.33695652173913,185.2695267267037,9.739177110355202,9.739177110355206,167.67025058649102
182.93478260869566,185.32168509499294,9.117427823381433,9.117427823381433,169.67130904527528
183.53260869565216,184.80880231451323,9.751871754214529,9.751871754214529,169.00007219564557
184.1304347826087,185.4803083575955,9.042915335791236,9.042915335791232,170.26652924060102
184.72826086956522,184.83748749327282,8.913547088872342,8.913547088872342,169.47108589640462
185.32608695652175,184.45839112856893,9.105894876074036,9.105894876074036,170.22926676550148
185.92391304347825,185.487585710622,9.33060221703025,9.330602217030254,169.11774759041765
186.52173913043478,185.4205118211684,9.62262382142983,9.622623821429826,169.13597454946705
187.1195652173913,184.22618985444188,9.827523336144552,9.827523336144552,169.0939717187336
187.7173913043478,185.43510953645173,9.679595703937997,9.679595703937993,168.70342696578035
188.31521739130434,185.7180819660663,10.096009126896648,10.096009126896645,169.44263901889755
188.91304347826087,184.3525873549752,9.717564431159603,9.717564431159602,169.64835935354893
189.51086956521738,185.0757954075105,9.711142520453194,9.711142520453194,168.69696665588964
190.1086956521739,185.66746807810193,9.261156912859729,9.261156912859729,169.6012390269134
190.70652173913044,186.1675071071547,9.109706069146858,9.109706069146858,169.67191848580975
191.30434782608694,186.4707674913098,9.367043643498555,9.367043643498556,169.85714906586938
191.90217391304347,186.6540311986642,9.499350384338282,9.499350384338282,168.99573690228118
192.5,186.1558264022959,9.462568235923477,9.462568235923479,170.35504526787696
193.09782608695653,187.11767278317402,9.351092793878596,9.3510927938786,169.23689375149357
193.69565217391303,187.23641699952833,8.82913052645723,8.82913052645723,170.3543744258829
194.29347826086956,186.2313333182865,9.363617398435801,9.363617398435803,169.94474482262112
194.8913043478261,185.75213764702113,9.559958784139443,9.559958784139443,168.93961013647825
195.4891304347826,186.88187216570117,8.859835677134901,8.8598356771349,172.05358238361202
196.08695652173913,187.3204655974014,9.038620956724507,9.038620956724504,170.49757215552648
196.68478260869566,187.07268285780967,9.091087344700622,9.091087344700618,170.73006883628634
197.28260869565216,187.72493758760672,8.967724895648212,8.967724895648207,170.92661346202405
197.8804347826087,188.92948973844406,8.900236880748636,8.900236880748636,169.1974507753314
198.47826086956522,189.02239651574465,8.291481942247284,8.29148194224729,171.10019955195173
199.07608695652175,186.9739640447561,8.792519812365205,8.792519812365203,169.84264406151203
199.67391304347825,187.62564515592422,8.975961744208236,8.975961744208231,169.98934338887472
200.27173913043478,187.67745420196675,8.674436870649652,8.674436870649647,170.55189755004855
200.8695652173913,187.40841481914183,9.208828523091055,9.20882852309106,171.06960763423126
201.4673913043478,187.4038645522384,9.312963271273409,9.312963271273409,170.17485819523966
202.06521739130434,188.02935989151229,8.74768561312865,8.74768561312865,170.5429499577429
202.66304347826087,188.60388366272724,8.65530441090636,8.655304410906368,171.51083626059827
203.26086956521738,188.46065944880266,8.44882739360222,8.44882739360222,171.00217797831027
203.8586956521739,187.96404954924543,8.45172389495811,8.451723894958114,170.26249326778463
204.45652173913044,187.88088055798724,9.21395690377233,9.21395690377233,169.48558675142826
205.05434782608694,188.09131061958857,9.371064090187755,9.371064090187751,171.48462935234724
205.65217391304347,188.2891477700712,9.001972395501332,9.001972395501333,171.07917483670624
206.25,188.32727643808505,9.195153667759781,9.195153667759781,170.27830386764944
206.84782608695653,188.851693462238,9.010724340396516,9.010724340396516,170.27955598451143
207.44565217391303,188.40174133741084,9.383292316107402,9.383292316107404,170.59442404530498
208.04347826086956,188.3407306384898,8.89370701070562,8.89370701070562,170.94133943857287
208.6413043478261,188.12116401900943,9.096194163477502,9.096194163477495,171.85253161661888
209.2391304347826,188.6872329998212,8.474663998034659,8.474663998034655,171.60097829013694
209.83695652173913,189.3069553127062,9.388434973778025,9.388434973778025,172.73069616306825
210.43478260869566,188.9159576411599,8.61979297249253,8.619792972492528,169.7325105348583
211.03260869565216,188.59823834981194,8.923166057259229,8.923166057259229,170.17629336866182
211.6304347826087,189.99951598784713,9.242248487285584,9.242248487285588,171.16896728803266
212.22826086956522,189.25630278393777,8.914236051396463,8.914236051396463,171.3585126190234
212.82608695652175,189.26866844465613,8.89616536932131,8.89616536932131,170.8408145120908
213.42391304347825,188.58309529522168,8.821391302021032,8.821391302021032,170.5152767616493
214.02173913043478,188.6647648533414,9.190291054195905,9.190291054195903,171.05327393933572
214.6195652173913,189.36011396187342,8.948752993192262,8.948752993192262,171.39931166761448
215.2173913043478,189.8093677380619,8.78882265428767,8.788822654287674,171.5541926543187
215.81521739130434,189.95485689484818,8.712148948800841,8.71214894880084,171.4958225705831
216.41304347826087,189.707865020765,8.820451678517164,8.820451678517164,171.3124102619847
217.01086956521738,189.06468604278612,8.550750781876175,8.550750781876179,172.78415862447176
217.6086956521739,189.91989773678876,8.583080571847114,8.583080571847118,171.2618709767536
218.20652173913044,189.36611523362635,9.090754452704417,9.090754452704422,170.6741438168126
218.80434782608694,190.23764129303802,9.437567237153457,9.437567237153457,171.31642787279063
219.40217391304347,190.19226397411987,9.26113026814822,9.261130268148216,171.22099288466453
220.0,189.447464306314,8.99511319870124,8.995113198701237,171.37504982908212
220.59782608695653,190.1794380968349,8.688223958476442,8.688223958476442,171.09195490854574
221.19565217391303,190.66794547561662,8.845237137783721,8.845237137783727,172.26022366451107
221.79347826086956,189.87160945884824,9.302760972058813,9.302760972058802,171.4686800211052
222.3913043478261,190.2175628962893,8.676671629960516,8.676671629960516,171.34340653477176
222.9891304347826,190.36008052501236,9.272078113194102,9.272078113194107,171.76365614911768
223.58695652173913,190.19025392887886,8.797996325917898,8.797996325917893,171.6322001489459
224.18478260869566,189.48668933007346,8.994075579379823,8.994075579379821,171.08892794578725
224.78260869565216,190.17368282822892,9.025124488010928,9.025124488010926,171.50378155543896
225.3804347826087,190.33653872408763,9.104812756351846,9.104812756351846,171.25531886651882
225.97826086956522,190.88900452674224,8.748087195539531,8.748087195539531,171.97426458956357
226.57608695652175,190.54305829190452,8.91482935852876,8.91482935852876,172.87265212741323
227.17391304347825,191.30622729296564,8.703117753757565,8.703117753757564,170.86897269579114
227.77173913043478,190.86511356744825,8.793206204078446,8.793206204078453,171.58472529822117
228.3695652173913,190.97483894876547,8.41464600610549,8.41464600610549,171.17485912975266
228.9673913043478,191.137904362433,8.70027009893135,8.70027009893135,171.91265657101815
229.56521739130434,191.41961021207177,9.004750106106071,9.004750106106075,171.27179736561004
230.16304347826087,191.74078958709003,8.763688796990493,8.763688796990499,171.74874871823008
230.76086956521738,192.06781802094937,8.62626069519382,8.62626069519382,171.8476605291831
231.3586956521739,192.17620577689445,8.048551460578102,8.0485514605781,173.04474585151755
231.95652173913044,191.8582629013793,8.381031192485372,8.381031192485372,172.42628442489166
232.55434782608694,192.29862716119845,8.457310034226749,8.457310034226753,172.16046828644733
233.15217391304347,192.48234845112876,8.712078461848794,8.712078461848794,172.81334502910616
233.75,192.15347200456083,8.548232218006733,8.54823221800673,172.79870464382265
234.34782608695653,192.27664859417416,8.410230870583911,8.410230870583908,171.90566470583224
234.94565217391303,192.70403736092587,8.456941461590146,8.45694146159015,172.62357175262375
235.54347826086956,192.63488827451843,8.489687918950054,8.48968791895005,171.7721687925772
236.1413043478261,192.29439808275782,8.309147825362226,8.309147825362226,173.70096387311915
236.7391304347826,192.41299667557274,8.528734228488036,8.528734228488032,171.99695462445675
237.33695652173913,192.1174751578209,8.401519051852341,8.401519051852341,172.64307860814552
237.93478260869566,191.9758593855463,8.568866739929843,8.56886673992984,171.85656216245442
238.53260869565216,192.77959107578738,8.885446878378904,8.885446878378904,172.85689906337586
239.1304347826087,192.24134732034528,8.936265098765945,8.936265098765944,172.66243953059296
239.72826086956522,193.06077387846673,9.078348632613343,9.078348632613345,173.05584136938057
240.32608695652175,192.37656212244798,8.420765243164851,8.420765243164851,173.12156129809037
240.92391304347825,192.24955736367426,9.14454962984991,9.14454962984991,172.90204654499723
241.52173913043478,192.98878241446815,8.345742885370187,8.345742885370187,173.21917719709984
242.1195652173913,193.60030688562335,7.850117509714424,7.850117509714424,173.15253867538527
242.7173913043478,193.19022430527133,8.607477572254986,8.607477572254982,172.97629154905653
243.31521739130434,193.00210874128416,8.410216101110903,8.4102161011109,173.47799147519822
243.91304347826087,193.13030958802167,8.581517028435877,8.581517028435876,173.02321887763247
244.51086956521738,192.61907811923902,8.30372710370852,8.303727103708516,173.5595061610427
245.1086956521739,192.94187197286945,8.334852187864527,8.334852187864525,172.94932664889845
245.70652173913044,193.37472641482591,8.201207423130054,8.201207423130056,173.43707048944603
246.30434782608694,192.82262246071883,8.481449652859448,8.481449652859448,173.1472586159662
246.90217391304347,193.97856787864606,8.538114129201203,8.5381141292012,173.1040145217535
247.5,192.920065531005,8.292731732443743,8.292731732443745,171.93995863289052
248.09782608695653,193.71027814953362,8.175024881981681,8.175024881981685,172.96838045232155
248.69565217391303,193.99790127535042,8.219362366171792,8.219362366171792,173.38184055285384
249.29347826086956,193.38467688223258,8.51727009272884,8.517270092728841,173.08371606720866
249.8913043478261,194.00171800751536,8.76071738005231,8.760717380052306,173.5083801068296
250.4891304347826,193.95298344117472,8.568304493461332,8.568304493461335,173.2622048973918
251.08695652173913,194.38046440865432,8.51162599771203,8.511625997712034,173.23826847154444
251.68478260869566,194.23899384736328,8.56235810230505,8.562358102305048,174.18318573125316
252.28260869565216,194.1809950797697,8.122849086568616,8.122849086568612,173.98673405313616
252.8804347826087,194.06184378604542,8.322106833908954,8.32210683390895,172.9084014013176
253.47826086956522,194.65351265447356,8.194642157825243,8.19464215782524,173.76627256485395
254.07608695652175,195.58091945780936,8.16395282411462,8.163952824114617,173.7562144449426
254.67391304347825,195.09040561126918,8.390511346965827,8.390511346965823,173.96960530418835
255.27173913043478,195.15881364350867,8.170415095776843,8.170415095776839,174.5238847406732
255.8695652173913,194.8411508571579,7.805927768133755,7.805927768133755,174.8512859035349
256.4673913043478,195.50567745870458,7.876969092620706,7.876969092620706,174.28381818039358
257.0652173913043,194.25407269503773,7.864066411439411,7.864066411439411,174.15686236729485
257.6630434782609,194.63379294780185,7.715820774203664,7.715820774203664,174.4235789010768
258.2608695652174,195.51612650978262,7.805794196539296,7.805794196539296,175.67806475622334
258.85869565217394,194.9265498768216,8.409140500175242,8.40914050017524,174.35841648009128
259.45652173913044,195.91014986756076,7.8782647905665915,7.878264790566599,175.00042972602247
260.05434782608694,196.8441807393181,8.11167492707413,8.111674927074127,174.98801371893003
260.6521739130435,195.84662697924568,8.271392481863277,8.271392481863277,175.03903125034057
261.25,195.6229538565417,8.21745813583563,8.21745813583563,174.63915361033554
261.8478260869565,196.3001903284769,7.7047718270388,7.7047718270388,174.53378066191434
262.44565217391306,195.59563312164966,8.362131075595485,8.362131075595485,174.54164946885598
263.04347826086956,196.03794649915093,8.384397858623407,8.384397858623407,175.53566940334898
263.64130434782606,196.36303841466957,8.460022288646291,8.460022288646291,176.58210477717518
264.2391304347826,195.98316647146444,8.28439681444799,8.284396814447986,175.60874403626735
264.8369565217391,196.26071818360185,7.982258139620497,7.982258139620494,175.7014749383603
265.4347826086956,196.24932756707068,8.36510992865576,8.365109928655764,175.61343632231518
266.0326086956522,196.31843170906063,8.512398083514904,8.512398083514913,174.1475226102271
266.6304347826087,196.60816329668106,7.845271431928235,7.845271431928235,174.73225853274775
267.2282608695652,196.92092558324805,8.300385697271716,8.300385697271713,175.27436058728577
267.82608695652175,196.57718462783353,7.91044874297828,7.91044874297828,175.2585024377027
268.42391304347825,195.57099067771506,8.108190322573241,8.108190322573245,175.2074311116131
269.02173913043475,197.54712066907138,7.9950759001922,7.9950759001922,175.66432597882718
269.6195652173913,197.77324243562788,7.892893233471323,7.892893233471323,175.07465923811898
270.2173913043478,197.5618310764175,8.240123167713476,8.24012316771348,175.3093711604912
270.8152173913043,197.78147638006018,8.394459364175843,8.39445936417584,175.75812290109405
271.4130434782609,196.75423178373984,8.592207229545663,8.592207229545663,175.9631629101771
272.0108695652174,198.43257009732952,8.08320965184077,8.083209651840773,175.22802271783758
272.60869565217394,197.88322249231064,7.928796108268944,7.928796108268944,175.34808471383275
273.20652173913044,197.30208895275024,8.257312865106556,8.257312865106556,175.2750325636399
273.80434782608694,197.86409990570175,7.696389780054254,7.696389780054256,174.25658339971318
274.4021739130435,197.10880969423928,8.552737258580798,8.5527372585808,175.89084194549523
275.0,197.13940740889873,8.275292076116354,8.27529207611636,174.0984651485928
275.5978260869565,197.90782415413608,8.136193008166018,8.136193008166018,174.81275077313228
276.19565217391306,197.53274350854642,8.089974998577526,8.089974998577539,174.87619156474938
276.79347826086956,197.74455489273862,8.612771498626412,8.612771498626417,176.74005401356231
277.39130434782606,197.72804250221188,7.7374951050720835,7.737495105072078,176.3149774286931
277.9891304347826,198.1637939879968,7.80117027980827,7.80117027980827,176.26423132400734
278.5869565217391,198.60867271783187,7.888023635668187,7.8880236356681905,176.8285819576336
279.1847826086956,198.51344464230544,8.059592819440004,8.059592819440004,176.1986296469321
279.7826086956522,197.91685396429395,7.586275982213347,7.58627598221335,176.32722298883917
280.3804347826087,198.34404385924353,7.786453185588638,7.786453185588639,176.9037547265268
280.9782608695652,197.95444910637642,7.980589650816586,7.980589650816586,176.8921021310527
281.57608695652175,198.21759378848287,8.156484452905474,8.156484452905474,176.3133609098694
282.17391304347825,197.7327606218904,8.129833592719459,8.129833592719457,176.33342139634306
282.77173913043475,198.018764717424,8.007918220465577,8.00791822046557,175.53318630739997
283.3695652173913,198.48566338985512,8.141132706818281,8.141132706818286,175.2186138572674
283.9673913043478,197.50271529908298,7.95983834065046,7.959838340650462,176.60439665960914
284.5652173913043,198.44685097366926,8.01217137075253,8.012171370752538,175.55995177322794
285.1630434782609,198.46946261164692,7.908572727637942,7.908572727637942,175.96976033559042
285.7608695652174,199.57183414446925,8.272834903482273,8.272834903482273,177.32742388257086
286.35869565217394,198.92987297750588,8.138658111125284,8.138658111125284,175.1838196492001
286.95652173913044,198.8572004341259,7.825389621389481,7.825389621389486,175.37881607802518
287.55434782608694,199.3241252449658,7.759411265581484,7.759411265581484,175.7024475173112
288.1521739130435,199.58492422354152,8.098764167178468,8.098764167178466,176.52653062730906
288.75,199.2534334927896,7.8418883676027376,7.841888367602734,175.36305345537176
289.3478260869565,200.10712709248935,8.055366712082908,8.055366712082906,176.11151068911457
289.94565217391306,199.1579566422302,8.411041351747317,8.411041351747313,176.48230821028434
290.54347826086956,198.37600483068664,7.977293988777107,7.9772939887771,176.3651787315048
291.14130434782606,198.38821934182062,8.054106045006787,8.054106045006785,176.0458466313192
291.7391304347826,198.6225941927872,8.60321868786717,8.603218687867173,177.5013865345836
292.3369565217391,199.16204108427942,8.140152103238181,8.140152103238185,176.0311833894418
292.9347826086956,198.9607259608966,8.560209813469902,8.560209813469905,176.0944598736877
293.5326086956522,199.25406419553343,8.015127120702891,8.015127120702887,176.66167144663544
294.1304347826087,200.02211778999543,8.221318886928573,8.221318886928573,176.95421477624143
294.7282608695652,200.27174093043175,8.215643210770047,8.215643210770049,176.6768790943521
295.32608695652175,200.24298499406405,7.730812911740868,7.73081291174086,177.88717827992846
295.92391304347825,199.27137777208605,8.3670374209154,8.367037420915393,177.7198832857341
296.52173913043475,200.15519143198097,7.6863175302895,7.686317530289497,177.20108760989183
297.1195652173913,200.39507632827224,8.05301253383899,8.053012533838986,177.57261454467854
297.7173913043478,200.83203802810928,8.158874569288674,8.158874569288672,177.14550873287212
298.3152173913043,200.59612566963696,7.868622261412448,7.868622261412454,176.87434183173704
298.9130434782609,200.4501805423856,7.869536750881711,7.869536750881707,178.3362220454278
299.5108695652174,199.81500153606993,8.104964299474268,8.104964299474275,177.45340824984038
300.10869565217394,200.16970805836954,8.097080044722714,8.097080044722718,177.43686635277368
300.70652173913044,200.3492176253486,8.390416633826222,8.390416633826222,178.18196700926686
301.30434782608694,201.51611044453026,8.055442784457174,8.055442784457174,177.50466982571226
301.9021739130435,201.7316855802002,7.7286768342688745,7.7286768342688745,178.23179408070092
302.5,202.7933540250377,7.8014253056380465,7.801425305638052,177.88822632799295
303.0978260869565,201.81456701521478,7.755777717538906,7.755777717538906,177.50050924335247
303.69565217391306,201.86381767120838,7.7990437995166415,7.799043799516645,177.85762716457586
304.29347826086956,201.45564878559247,7.616581337144623,7.616581337144623,178.60693168824827
304.89130434782606,201.63423420824122,8.106262925138083,8.106262925138084,177.4253392197443
305.4891304347826,201.72074421947525,8.041978719616358,8.041978719616358,177.81219023263696
306.0869565217391,201.25874819385402,8.232325400261951,8.232325400261953,178.24416934087404
306.6847826086956,201.2860818847752,7.168773507759793,7.168773507759793,178.62987339890444
307.2826086956522,202.64130473220226,8.039364372187334,8.039364372187338,178.9759304884263
307.8804347826087,201.69890645141894,8.436129436653419,8.436129436653422,177.75555360578613
308.4782608695652,202.1536622492128,8.130798296777682,8.130798296777686,177.57043362999673
309.07608695652175,202.12415473011254,8.175361970786549,8.175361970786549,179.13769216818753
309.67391304347825,202.34560255911654,8.269176574845543,8.26917657484555,178.65387727978228
310.27173913043475,201.91904605726543,7.9118521937212645,7.911852193721271,179.32029456191302
310.8695652173913,201.60479462920904,8.18297210898118,8.182972108981183,178.5153451408225
311.4673913043478,201.88385440340784,7.890947249150218,7.89094724915022,179.48780824421934
312.0652173913043,201.3817334721013,7.914812841245522,7.914812841245522,178.88745682272813
312.6630434782609,203.03845809302413,7.564846500499885,7.564846500499887,177.94339614068983
313.2608695652174,201.47105944556327,7.315916103477971,7.315916103477972,178.33207460939008
313.85869565217394,202.49494291295136,7.417320507236375,7.417320507236371,179.0579826312047
314.45652173913044,201.76023541918698,7.674657930647298,7.674657930647298,178.59587174420548
315.05434782608694,202.35686566335343,7.444021851085939,7.444021851085939,178.4011958515063
315.6521739130435,202.40502416164716,7.669868530831214,7.669868530831216,178.58685208848206
316.25,202.7594906087971,7.90348324726284,7.903483247262842,178.8921348564274
316.8478260869565,202.62650965262753,7.943633721722054,7.943633721722054,178.4179019410177
317.44565217391306,202.73980124584702,7.891752877727617,7.891752877727617,178.52496418369734
318.04347826086956,202.11369473045988,8.326451960946008,8.326451960946008,178.7758562878609
318.64130434782606,203.1790935474779,7.675905419381341,7.675905419381343,179.16672320260773
319.2391304347826,203.2246391080495,7.964233179695177,7.9642331796951735,179.64108686245228
319.8369565217391,203.31090849384242,7.712474155839052,7.712474155839052,179.48317636727262
320.4347826086956,202.6445544228306,7.659647386168339,7.659647386168335,178.0892371575074
321.0326086956522,203.9814916572223,8.16728459135412,8.167284591354123,178.78134252155797
321.6304347826087,203.23416235751432,7.891138800681732,7.891138800681732,179.98818568399363
322.2282608695652,202.85851595200683,7.997615784407871,7.997615784407871,179.13067264652665
322.82608695652175,202.5968642070732,8.285741887020786,8.285741887020789,179.23204299240783
323.42391304347825,203.53618805608528,7.654056672067303,7.65405667206731,178.03367149716806
324.02173913043475,203.06327599938697,7.57462692248142,7.574626922481416,179.69434866245442
324.6195652173913,203.20682095663565,8.341590530358335,8.341590530358332,179.2315627101543
325.2173913043478,203.86629012933463,8.099057680953234,8.099057680953234,180.23527559458805
325.8152173913043,203.23126219571347,7.755047001382256,7.755047001382253,178.58513971342947
326.4130434782609,203.21109058718656,7.922728620494884,7.922728620494879,179.80102810388783
327.0108695652174,203.19751129891642,7.691462148591613,7.69146214859162,179.40807608758672
327.60869565217394,203.68549434353514,7.620417736227557,7.6204177362275605,179.41468485689833
328.20652173913044,205.2394977121722,7.9433746797617655,7.943374679761762,179.14014385477304
328.80434782608694,204.80620585899734,7.654995890069182,7.654995890069182,180.11695814088833
329.4021739130435,204.32236032168214,7.440487192213857,7.440487192213857,180.0940243657747
330.0,204.8017973883041,7.6108779562965525,7.6108779562965525,179.82057822856711
330.5978260869565,204.28622214923436,7.791925884921006,7.791925884921006,180.00500030504463
331.19565217391306,204.19629987222083,7.800024720471626,7.800024720471622,180.02896897365412
331.79347826086956,204.6413391768604,7.5176252717929595,7.517625271792963,179.99773862364682
332.39130434782606,204.60377269160495,7.355736266081824,7.355736266081828,180.05054924096152
332.9891304347826,205.02564245071275,7.427418165532932,7.427418165532928,180.46837762697334
333.5869565217391,204.87174367078993,7.957628196050696,7.957628196050691,180.33957790468628
334.1847826086956,204.40812893796473,7.543416141239909,7.543416141239913,181.16136232101567
334.7826086956522,204.3497912216207,7.3407754369317475,7.340775436931745,180.89177211639083
335.3804347826087,204.88735841970464,7.416372160231581,7.416372160231581,181.1666694967693
335.9782608695652,205.21050714863907,7.538975608933869,7.538975608933866,181.15286963260118
336.57608695652175,204.88065875867227,7.514160976858243,7.514160976858246,181.89942806688512
337.17391304347825,205.3314670593123,6.918547923528102,6.9185479235280996,181.36305595507298
337.77173913043475,204.8784955359256,7.848780862032501,7.8487808620325055,180.86081226538187
338.3695652173913,205.30198474690468,7.667551038427893,7.6675510384278915,182.09925083360528
338.9673913043478,205.31532631638754,7.651853393022406,7.6518533930224,181.9078829550757
339.5652173913043,205.5957190558899,7.766727927931063,7.766727927931063,180.9987012242132
340.1630434782609,205.56085428565794,7.52383226871792,7.523832268717922,181.5142854678298
340.7608695652174,205.69171711079966,7.767366145531296,7.767366145531296,182.08033884666335
341.35869565217394,205.10168474255033,7.32075469739386,7.32075469739386,182.52803031426978
341.95652173913044,205.53754153254542,7.388067381869501,7.388067381869501,181.9994728184685
342.55434782608694,206.69085586919383,6.751633869420266,6.751633869420266,180.9119932477041
343.1521739130435,206.65776043669223,7.722656352917992,7.722656352917994,182.4193215948762
343.75,206.5934400542254,7.654467371775565,7.65446737177556,181.78369124630194
344.3478260869565,206.0825846503257,7.058419367146611,7.058419367146607,181.8491642756905
344.94565217391306,207.3456145557308,7.552096042729786,7.552096042729789,182.04283176782118
345.54347826086956,206.14520049978074,7.743747637378989,7.74374763737899,181.98195261328604
346.14130434782606,207.7904495872326,7.890850489931992,7.890850489931989,181.93940316122942
346.7391304347826,206.45624446191556,7.572852879481539,7.572852879481543,182.1885964189426
347.3369565217391,207.03164202882095,7.594259840652525,7.594259840652525,183.33026491011796
347.9347826086956,206.7799073486438,7.900054297399462,7.900054297399455,182.9340382541316
348.5326086956522,207.70083997842664,7.9281231055072805,7.9281231055072805,182.7892838962323
349.1304347826087,207.6022561959044,7.567551277239087,7.567551277239087,183.04755255707823
349.7282608695652,210.00636540687927,7.513810565781356,7.513810565781358,184.18878559645063
350.32608695652175,209.1419329410037,7.382666718298029,7.382666718298025,185.06071685335553
350.92391304347825,209.31446623233816,7.528857181386368,7.528857181386368,184.87720955227712
351.52173913043475,209.19396642603806,7.385846320658806,7.385846320658801,184.95218217324714
352.1195652173913,210.30352582196522,7.133861425195664,7.133861425195664,184.6006533745669
352.7173913043478,210.59173733284507,7.533598746222661,7.533598746222661,184.98694309923388
353.3152173913043,210.7208787303215,7.9359203536785685,7.935920353678567,185.26829759679245
353.9130434782609,210.01225539894259,7.324812668485375,7.324812668485379,187.17500601114853
354.5108695652174,211.32616052303976,6.936405506843965,6.936405506843965,186.1307780867786
355.10869565217394,211.96047599976472,7.2182872019053255,7.2182872019053255,185.55866911019075
355.70652173913044,211.43835651456422,6.955253388350752,6.955253388350752,185.80250821338305
356.30434782608694,210.21625376202056,7.15925875048529,7.15925875048529,184.89686911361878
356.9021739130435,210.20436640522428,7.284084992783115,7.284084992783115,185.02931371245268
357.5,210.97832255628353,7.722984326869522,7.722984326869518,185.4233101123538
358.0978260869565,210.7326666623992,7.964958730178492,7.96495873017849,185.21496585663996
358.69565217391306,212.14473829768448,7.367597224125676,7.367597224125676,188.29128582743652
359.29347826086956,210.3249391482499,7.874160680180365,7.874160680180365,185.4114778530513
359.89130434782606,209.30650692942797,7.357586955807978,7.3575869558079745,186.03065588992453
360.4891304347826,210.61406214739526,7.217128897875928,7.217128897875929,185.7740481853365
361.0869565217391,210.1983134674696,7.313275505165348,7.313275505165348,185.78705575242458
361.6847826086956,209.81591664233673,7.6581097765802495,7.658109776580246,184.7924302675633
362.2826086956522,209.32052510985145,7.685030214347084,7.6850302143470826,184.4524965177891
362.8804347826087,208.64281772628306,7.970694938087247,7.970694938087249,184.60332662117403
363.4782608695652,208.63137308152633,7.652152923858924,7.652152923858924,184.53231904509425
364.07608695652175,209.96413637130635,7.367647297599899,7.367647297599903,184.79104112117332
364.67391304347825,208.6435348432614,7.972328542914423,7.972328542914423,184.83492835271207
365.27173913043475,209.17239609655783,7.906161368306538,7.906161368306538,183.8640881366933
365.8695652173913,210.18948137899832,8.146507461111053,8.146507461111053,183.89408860414727
366.4673913043478,209.60229799449945,7.936785483427431,7.936785483427427,184.8058863016235
367.0652173913043,209.24450674934573,7.332693286104513,7.332693286104517,184.75091752074744
367.6630434782609,209.58648435999962,7.9553956566472355,7.955395656647241,184.6626502999721
368.2608695652174,208.74649340604662,7.94629540385467,7.946295403854672,184.248236708747
368.85869565217394,209.69293574585436,7.521881576904284,7.52188157690428,185.00970413215256
369.45652173913044,209.32373530272508,7.774334521100977,7.774334521100985,185.04111127954346
370.05434782608694,209.2039150821064,8.044933151214504,8.044933151214504,184.8024328617486
370.6521739130435,210.30979055247025,7.596738738864609,7.596738738864616,184.57763624184093
371.25,210.1698479231053,8.191365584545126,8.191365584545126,185.5798292815713
371.8478260869565,209.56471049635996,7.607254025967502,7.607254025967504,184.23840230745037
372.44565217391306,210.350395281203,7.5752122707385645,7.575212270738566,184.84898618976644
373.04347826086956,210.34401284120824,7.757449489282292,7.757449489282292,185.62123308251157
373.64130434782606,210.51321050372744,7.624592025016196,7.624592025016196,186.2724890553894
374.2391304347826,210.5259254799805,7.549035831487732,7.549035831487732,185.51580725772695
374.8369565217391,211.29172364781962,8.157149781790698,8.157149781790702,187.26843469838155
375.4347826086956,212.0740823623384,8.034768528944653,8.03476852894465,187.462922668231
376.0326086956522,212.51895258807775,7.789924007185251,7.789924007185256,187.44999938691626
376.6304347826087,213.25662623747615,7.6142924336282345,7.614292433628238,187.85650611335842
377.2282608695652,212.6203271261594,7.283060718656472,7.283060718656472,187.78298328369794
377.82608695652175,213.38472130620812,7.3939856298882365,7.393985629888235,188.1858938217381
378.42391304347825,212.69649787080598,7.621552967013348,7.621552967013348,188.09735880064824
379.02173913043475,212.2925417625905,7.4171908975245335,7.417190897524529,187.6572103429347
379.6195652173913,212.80639187842496,8.299250752535665,8.29925075253567,188.13243596643375
380.2173913043478,212.15886294153222,7.4531598568462005,7.453159856846205,187.40614398827577
380.8152173913043,212.8283690805516,7.63305937638146,7.633059376381456,187.93609329962894
381.4130434782609,212.60061925831948,7.955607479555416,7.955607479555416,189.5075505687394
382.0108695652174,213.26560922672752,7.210719053329227,7.2107190533292345,186.75766932056752
382.6086956521739,213.60030647176382,7.73876813092708,7.73876813092708,187.77220615047824
383.20652173913044,212.8912205023163,7.612999030697327,7.612999030697329,188.45144656712267
383.80434782608694,212.9842690218328,7.402161609489465,7.402161609489462,187.75774705621964
384.4021739130435,212.61709509344823,8.100815739780451,8.100815739780451,189.01165153902355
385.0,213.20564780725792,7.606719254125372,7.606719254125368,188.31242404097605
385.5978260869565,214.03470011699252,7.260176728865419,7.260176728865417,188.25065304309007
386.19565217391306,214.0806086060875,7.782246900809423,7.78224690080942,188.26540372953713
386.79347826086956,213.63987729102516,7.674159648863436,7.674159648863429,187.46555568304262
387.39130434782606,213.85921893399393,7.571586505128992,7.571586505128985,188.73911880576446
387.9891304347826,214.66818447886058,7.242524889407834,7.242524889407829,188.7981431066377
388.5869565217391,214.7784555067393,7.796293186922996,7.796293186923001,189.14181076799895
389.1847826086956,213.73187496782793,7.407601973235587,7.407601973235587,188.9240248015396
389.7826086956522,214.0902508860225,7.45751975351627,7.457519753516267,189.4947087816845
390.3804347826087,214.08331091630927,8.023630300815245,8.023630300815245,188.88694208484264
390.9782608695652,214.20256491590203,7.622241043464607,7.622241043464605,188.99850844509012
391.57608695652175,215.1525717543347,7.386301757410241,7.386301757410244,188.9716837183969
392.17391304347825,214.38471401093238,7.312948521153987,7.312948521153991,189.26235359628407
392.77173913043475,215.70889864220794,7.418809888433236,7.418809888433236,189.76330737204154
393.3695652173913,214.07564444654363,7.510142545692424,7.510142545692427,189.93233027567067
393.9673913043478,214.2544128287719,7.791431126228669,7.791431126228672,189.56354826263973
394.5652173913043,214.6066367799616,7.530930453220275,7.530930453220275,190.41186631536718
395.1630434782609,214.79936500121448,7.789540210271394,7.789540210271394,189.49711196704598
395.7608695652174,213.63880197573545,7.613988099331466,7.613988099331466,189.81446276475305
396.3586956521739,215.59020353267036,7.906489516945719,7.906489516945719,190.1458281560917
396.95652173913044,214.91885062459275,7.597870138271298,7.59787013827129,189.16819486064648
397.55434782608694,213.95980483433488,7.570361025336553,7.570361025336555,190.4581788695913
398.1521739130435,215.2700196675324,7.502513606351377,7.502513606351377,189.7513919176418
398.75,214.84259582043498,7.779745566131876,7.779745566131879,190.0146519275886
399.3478260869565,216.37588066682707,7.786509710663644,7.786509710663651,190.31245398760464
399.94565217391306,215.4900311275383,8.214492368396488,8.21449236839649,190.6853982421331
400.54347826086956,215.04312482733667,7.39925569342316,7.39925569342316,190.36923128144565
401.14130434782606,231.42599195764967,2.0207052541511334,2.0207052541511312,189.23438243198646
401.7391304347826,216.01824426222802,7.812197840304057,7.812197840304057,191.5196614085817
402.3369565217391,216.3137729407013,7.499558377774111,7.499558377774113,192.25658557543247
402.9347826086956,215.36077555874613,7.580270331264764,7.580270331264767,191.4841263811422
403.5326086956522,217.13149136353562,7.63996894431685,7.63996894431685,191.70213097639729
404.1304347826087,216.6873874801311,7.540078614097895,7.540078614097898,191.4850331361128
404.7282608695652,216.3506737649609,7.290744201559397,7.290744201559397,191.26296559131683
405.32608695652175,216.37065611606457,7.606537757876929,7.606537757876931,191.4152905914697
405.92391304347825,216.07414816475597,7.334382272452949,7.334382272452952,190.92486525721193
406.52173913043475,215.49669051070418,7.2877311179288675,7.2877311179288675,191.08936979407983
407.1195652173913,215.47333017804854,7.893460754486972,7.8934607544869735,190.22259133202726
407.7173913043478,215.6309319754182,7.42476725890688,7.42476725890688,191.53997731047298
408.3152173913043,216.4304443021816,7.392126260864232,7.392126260864232,190.8458474449563
408.9130434782609,215.99620565543393,7.929983202372202,7.929983202372202,191.78464261669322
409.5108695652174,216.78348244047675,7.398862472270548,7.398862472270548,191.17354514397297
410.1086956521739,216.97386840095382,7.3269929915372085,7.326992991537205,191.1631138985313
410.70652173913044,216.8068260300503,7.68222497340828,7.682224973408278,191.59997833181075
411.30434782608694,217.90118002409378,7.691756628039742,7.691756628039742,192.12172653762335
411.9021739130435,217.43012972386794,7.572319298926232,7.572319298926228,192.97477267081783
412.5,217.15261073806795,7.581646120978821,7.581646120978828,191.84895225834993
413.0978260869565,217.44661998074628,7.94388578017376,7.94388578017376,193.02959171447253
413.69565217391306,217.49375349462483,7.903557478258045,7.903557478258052,192.6999924699435
414.29347826086956,217.60577891072367,7.716540598759404,7.716540598759404,191.97243168863108
414.89130434782606,216.44761640746145,7.820283073825027,7.82028307382503,192.90221684670882
415.4891304347826,217.0948799858406,7.901595126291287,7.901595126291282,192.73650972800345
416.0869565217391,217.58344304402283,7.841950824560221,7.841950824560217,192.68583767329366
416.6847826086956,218.37207027817058,7.6154419047561905,7.615441904756187,192.83962708607632
417.2826086956522,217.18246421150903,7.966032046464086,7.966032046464093,192.7779737608381
417.8804347826087,216.97040606245343,7.756180886369224,7.756180886369227,191.78627608550232
418.4782608695652,217.75951115682858,7.783504735627689,7.783504735627689,192.89993239078473
419.07608695652175,216.8698491745369,7.714428102740731,7.714428102740728,192.31586752352138
419.67391304347825,217.28995580664483,7.782179664757561,7.782179664757561,193.02079645462103
420.27173913043475,218.09572360720063,7.554356562052785,7.554356562052785,191.92947848093905
420.8695652173913,216.45906089452637,7.403035050587466,7.403035050587466,192.69172711848523
421.4673913043478,217.86202255797457,7.808035193256311,7.808035193256307,193.768616835372
422.0652173913043,217.2140290436499,7.945461288867258,7.9454612888672616,193.33143433358217
422.6630434782609,217.21448419389353,7.819172763381511,7.819172763381511,193.51683119054874
423.2608695652174,218.15608318195856,7.647004662435857,7.647004662435857,193.35327473021354
423.8586956521739,218.00679674310382,7.796876732240537,7.79687673224054,194.19298735260531
424.45652173913044,218.57172349907475,7.294235547563715,7.294235547563717,194.37869102842046
425.05434782608694,218.27763895825407,7.479312541542112,7.479312541542112,193.29968290302878
425.6521739130435,217.95540813480375,7.230801178429771,7.230801178429767,194.30248901523703
426.25,219.5520571778181,7.545253887107476,7.545253887107473,194.15631866232195
426.8478260869565,218.51422034519751,7.091231988333604,7.0912319883335995,193.9214888181015
427.44565217391306,219.3825597848184,7.358680089238521,7.358680089238514,194.70733900317606
428.04347826086956,218.38948670732134,7.413935066344851,7.413935066344851,194.32521107076482
428.64130434782606,219.20079101497547,7.562398822951529,7.562398822951529,194.6115837179764
429.2391304347826,219.30216038510244,7.48524149699764,7.485241496997647,194.70191312731
429.8369565217391,219.67189462815577,7.0912547359108205,7.0912547359108205,194.43416539778903
430.4347826086956,219.1269545661447,7.774574088205409,7.774574088205409,195.08169064100076
431.0326086956522,220.31746463067276,7.286448017079128,7.286448017079128,195.09198407632147
431.6304347826087,219.94625451836794,7.139576832642253,7.139576832642249,194.7851451817521
432.2282608695652,219.8994781035324,7.40465499149039,7.404654991490394,194.8184703863131
432.82608695652175,219.71057756049913,7.258806216624121,7.258806216624121,195.8502765207384
433.42391304347825,219.38251755196825,7.659041958154348,7.6590419581543445,194.5402305099047
434.02173913043475,219.48910307658943,7.0610351339618465,7.06103513396185,195.15685530197374
434.6195652173913,219.4659352895842,7.509522688909362,7.509522688909362,195.43701953126438
435.2173913043478,219.2419670080537,7.03591493513628,7.03591493513628,194.9217498295786
435.8152173913043,220.10955937251754,7.621184582053877,7.62118458205388,195.38690383309398
436.4130434782609,221.45514565704144,7.3487174314185335,7.348717431418539,195.9812198060861
437.0108695652174,219.41622735701495,7.4766575654832685,7.4766575654832685,195.55456291154042
437.6086956521739,219.6886492795258,7.600980412979232,7.600980412979232,194.77617729624725
438.20652173913044,220.26764466500813,8.35954865360174,8.359548653601736,194.73636199247161
438.80434782608694,220.3407140930604,7.3365736483250865,7.336573648325088,195.88158627865457
439.4021739130435,221.0334539587262,7.329037253000125,7.329037253000129,195.75479514073265
440.0,220.5013627796106,7.242320790637956,7.2423207906379545,195.67518051201887
440.5978260869565,219.66285041472017,7.711540132641594,7.711540132641599,196.1910064725451
441.19565217391306,220.75509412072398,7.4783671624923125,7.478367162492316,196.32254733845087
441.79347826086956,220.27453502244143,7.4056275829449385,7.4056275829449385,196.55503194364977
442.39130434782606,220.0087452025765,7.468919672992641,7.468919672992637,196.67667493619342
442.9891304347826,221.26919040703527,6.994979872149437,6.994979872149434,197.3225786671349
443.5869565217391,220.625535006205,7.336553576252133,7.336553576252133,196.75854243890623
444.1847826086956,221.43690821428032,7.031236668021045,7.031236668021045,197.16384983282984
444.7826086956522,221.43662546529893,6.870140228354921,6.870140228354925,196.8749598122234
445.3804347826087,221.6375395720376,7.785385310378298,7.7853853103783015,196.30272764419166
445.9782608695652,221.30821923533574,6.965207693607238,6.965207693607241,195.92568428553218
446.57608695652175,221.23750091508435,6.8968767768791635,6.896876776879166,196.58846478534008
447.17391304347825,221.19804430504033,7.075707713007608,7.075707713007606,196.2516909864701
447.77173913043475,221.27492917167723,7.025842650887348,7.025842650887348,197.63914090643652
448.3695652173913,221.63648679662296,7.414445095098509,7.414445095098509,196.78806656997887
448.9673913043478,221.3022602312341,7.032332530284653,7.032332530284653,197.75147252471135
449.5652173913043,221.69088745945024,7.593613768185038,7.593613768185036,196.2852712164765
450.1630434782609,221.3100268140829,7.07782734765363,7.07782734765363,196.89974822026045
450.7608695652174,221.0460653775291,7.359541465887279,7.3595414658872835,197.64081567314796
451.3586956521739,220.6330105550212,7.353715873490794,7.353715873490797,196.74160373734796
451.95652173913044,221.45796275590396,7.360891265244666,7.36089126524467,196.48255477285025
452.55434782608694,221.22607891852405,6.608626887813514,6.608626887813515,196.69194039224948
453.1521739130435,221.28018002197697,7.2370609845471465,7.23706098454715,196.36284603294342
453.75,220.6646506293646,7.611575354710912,7.611575354710916,196.29120966228473
454.3478260869565,221.7079515620748,7.334303438328741,7.334303438328741,196.8169166939421
454.94565217391306,221.1407125672874,7.285284642575288,7.28528464257529,197.4961189185862
455.54347826086956,221.16806565240543,7.220360457144785,7.220360457144783,197.5926312295341
456.14130434782606,221.71421247575006,7.402970149252829,7.402970149252829,198.68853163760392
456.7391304347826,222.39705210647048,7.600352636581226,7.600352636581231,197.93821359405877
457.3369565217391,222.73667705548684,7.63493581586408,7.634935815864083,197.76174094267822
457.9347826086956,222.44694781906225,7.280212962403518,7.280212962403515,199.3853299732597
458.5326086956522,222.12275939357147,7.299877479639981,7.299877479639981,198.466302995766
459.1304347826087,222.3292913539315,7.9730898944928965,7.9730898944929,198.42859584630227
459.7282608695652,223.18095442713496,7.630943576588344,7.630943576588344,199.25864937809885
460.32608695652175,221.86026846063518,8.177625439112816,8.17762543911282,199.10046992656882
460.92391304347825,223.2439334126599,7.448671840155545,7.448671840155538,198.43886386989382
461.52173913043475,223.70630861855295,7.030961913042921,7.030961913042919,197.5391089577796
462.1195652173913,222.62588839974242,7.769764884716605,7.769764884716607,198.24048882248073
462.7173913043478,222.8303429187306,7.289082202127702,7.2890822021277,199.7042445459092
463.3152173913043,224.10444929259907,7.280894762671668,7.2808947626716645,198.28671867102375
463.9130434782609,224.02630058539887,7.170465904797791,7.170465904797792,199.34459970144064
464.5108695652174,223.7655006365318,6.924865069056755,6.924865069056759,200.42386638420007
465.1086956521739,224.83282288374693,6.811791670509371,6.811791670509373,199.08568601428874
465.70652173913044,224.59808089552232,6.9606951273177895,6.960695127317786,199.21487173069536
466.30434782608694,224.00684302455633,7.462991640929928,7.462991640929928,199.96232474800192
466.9021739130435,223.45372121955543,7.235110031590611,7.235110031590602,198.84151824770478
467.5,223.36523250706952,7.440926012504667,7.440926012504667,199.0598738162494
468.0978260869565,224.309845174746,7.1907628309440454,7.190762830944041,198.3038448246896
468.69565217391306,223.8273013316927,7.124216734581176,7.124216734581183,199.54647626435764
469.29347826086956,223.51474000494764,7.571361177141931,7.571361177141934,199.06170874435816
469.89130434782606,224.05508908481298,7.370903532282505,7.370903532282505,199.58358112765387
470.4891304347826,224.12881059704029,7.013952135853065,7.013952135853062,199.81133659023143
471.0869565217391,223.84618135129114,7.1355099656119405,7.135509965611942,200.0726083692524
471.6847826086956,224.07455562341138,7.033813138142032,7.033813138142037,200.15211461488096
472.2826086956522,224.82139780738,7.080008797341898,7.080008797341901,199.96394009765274
472.8804347826087,225.23584665610613,7.174239005993383,7.174239005993383,200.880419372156
473.4782608695652,224.05377047458384,7.187603178073772,7.187603178073774,200.59402882138284
474.07608695652175,225.2159456761472,6.515003187139499,6.5150031871395075,200.2652684601162
474.67391304347825,224.31057525131152,6.469287469528656,6.469287469528656,200.3316840669486
475.27173913043475,225.67727613261573,6.717465948644565,6.717465948644567,199.50667068086395
475.8695652173913,223.65650488868417,7.118434772794863,7.11843477279486,200.75506721447502
476.4673913043478,224.527779817931,7.351011487161841,7.351011487161841,200.9148156210618
477.0652173913043,225.23192521919955,4.9792400340371525,4.979240034037158,200.9396384602418
477.6630434782609,225.37017445256814,6.950810986248585,6.9508109862485865,200.91094206629427
478.2608695652174,225.1521990539061,9.569249457307128,9.569249457307128,203.0642995434637
478.8586956521739,223.91042727933836,7.135681654360077,7.135681654360081,202.08244142834914
479.45652173913044,224.75948816428314,7.0656728453355,7.065672845335497,201.23591104043797
480.05434782608694,225.34888520276047,7.192083304073423,7.192083304073427,200.55720973783772
480.6521739130435,225.12890602664763,6.679190453830346,6.679190453830344,200.4184110284247
481.25,225.6881948978997,6.914955415279011,6.914955415279006,201.42753919021953
481.8478260869565,225.79618651810011,6.795131006381608,6.795131006381608,202.01943468469796
482.44565217391306,225.9072200387264,6.530944414201483,6.53094441420149,200.97358958063407
483.04347826086956,226.479345854405,6.996176239452026,6.996176239452023,202.00740954131336
483.64130434782606,224.8471621072065,7.09373049262278,7.09373049262278,202.41585025885425
484.2391304347826,225.51794424378488,7.4276174993504105,7.4276174993504105,201.38356234917856
484.8369565217391,224.74578756973324,7.030845923120577,7.030845923120573,201.46598371779893
485.4347826086956,226.31222893459298,6.81524726874374,6.81524726874374,201.72604245712523
486.0326086956522,225.5641771777985,7.0777312753013835,7.0777312753013835,201.04044886770868
486.6304347826087,225.5271475196095,7.018015191014703,7.018015191014699,201.24857321203265
487.2282608695652,225.9400621746681,7.035739611774925,7.03573961177492,201.24976740389326
487.82608695652175,225.78488376903238,7.133652596256758,7.133652596256758,201.7412154732013
488.42391304347825,226.461570009413,7.010770237605912,7.010770237605914,203.51611647477597
489.02173913043475,226.28896629028782,6.8941770980519905,6.8941770980519905,202.0828596625555
489.6195652173913,226.29012834962552,6.5543522918880495,6.5543522918880495,202.6395158058716
490.2173913043478,225.69021499515736,6.8132013543990695,6.813201354399073,201.73624146833944
490.8152173913043,226.11169697428193,6.7948257630263384,6.7948257630263384,201.5889667852785
491.4130434782609,226.3315129937279,6.665151132435514,6.665151132435514,203.84788228065264
492.0108695652174,226.58886080070934,6.3552357200768155,6.355235720076819,202.57512995181685
492.6086956521739,227.54010888253885,6.98368848834269,6.983688488342683,201.98739374312416
493.20652173913044,225.96313050016994,6.765800949620768,6.765800949620772,203.21558835094496
493.80434782608694,226.68572627522553,7.322191330616577,7.322191330616573,203.82410130425723
494.4021739130435,225.70784584484497,6.893046737209926,6.893046737209922,202.93259337527596
495.0,226.65390393056725,6.765461223458111,6.765461223458109,203.7868403459971
495.5978260869565,227.42302774954166,6.686917513400756,6.686917513400756,203.3287310219895
496.19565217391306,226.63507250209756,7.283976273523947,7.283976273523947,203.46851504666867
496.79347826086956,226.71915561239487,6.267715409860904,6.267715409860904,203.28431058868108
497.39130434782606,226.78488977047874,6.031629243061906,6.031629243061906,204.29593378640766
497.9891304347826,226.88918028734972,6.344951530091149,6.3449515300911505,203.85113293228434
498.5869565217391,227.52668805342728,6.138895618665195,6.1388956186652,204.18532025128363
499.1847826086956,227.50941465834626,8.09776342504663,8.09776342504663,204.75024033492298
499.7826086956522,227.13011494014785,6.286545042822889,6.286545042822889,204.38280489930273
500.3804347826087,227.53296665542229,6.354269146705593,6.3542691467055885,203.36065859347426
500.9782608695652,226.74434053437278,6.75906404016987,6.759064040169866,205.04208084957173
501.57608695652175,226.78871805087329,7.110408856878711,7.1104088568787125,204.71040641325823
502.17391304347825,227.6298782900389,6.9252065867259605,6.925206586725957,204.42544751330908
502.77173913043475,226.9528146440663,6.413495795798994,6.413495795798994,205.1349037205264
503.3695652173913,227.26887175045835,6.823478261428107,6.823478261428104,204.12510768946558
503.9673913043478,228.00905053032938,6.575843407100152,6.575843407100147,205.0618091786677
504.5652173913043,228.1712612016081,6.854549485444822,6.85454948544482,204.85146454383423
505.1630434782609,227.8482933376434,6.807228869971609,6.807228869971614,205.37105008365882
505.7608695652174,228.37475673897868,6.6838239733477955,6.6838239733477955,204.6903645903617
506.3586956521739,228.442171177408,6.870446231142142,6.870446231142146,204.31161772313447
506.95652173913044,227.89641127331905,6.975045526704722,6.975045526704718,204.9084704413761
507.55434782608694,227.9725324041474,7.060734109257403,7.060734109257403,205.27887867526607
508.1521739130435,228.39942528142103,6.603652145847905,6.6036521458479,205.0500286467719
508.75,228.64101427603967,6.690707353542382,6.6907073535423836,205.5563983710783
509.3478260869565,229.10660611885314,6.50418693267477,6.504186932674768,205.85684922304495
509.94565217391306,228.10333387714368,6.615802326903513,6.615802326903514,206.15286313333945
510.54347826086956,228.2544272551024,6.018286655342423,6.018286655342423,206.2082290866192
511.14130434782606,228.30213307946357,7.297860056043258,7.29786005604326,205.3963584560857
511.7391304347826,228.50370094172524,6.568167705475189,6.568167705475186,204.9642105546252
512.3369565217391,229.21251098605168,5.848748144588473,5.84874814458847,206.3588519628862
512.9347826086956,228.23299423252726,6.583556278661521,6.583556278661518,205.62894384339367
513.5326086956521,228.61961873238354,6.508407489074988,6.508407489074989,206.19480459547205
514.1304347826086,228.63311520026775,6.614332542929928,6.614332542929924,206.34926767526943
514.7282608695652,229.1483193030838,6.764026058306336,6.764026058306331,206.04945147093935
515.3260869565217,228.39632496020354,6.510400365077197,6.510400365077198,206.04337680306492
515.9239130434783,229.052777457248,6.88802517842392,6.88802517842392,206.17016833020966
516.5217391304348,229.40226987349573,6.520716548991418,6.520716548991419,205.7610345276559
517.1195652173913,230.61976199467412,6.413723630367776,6.413723630367779,207.71303331806865
517.7173913043479,228.918079468159,6.762688282708202,6.762688282708198,207.891959428736
518.3152173913044,229.09106425618373,6.835691010001052,6.835691010001052,206.18956994745636
518.9130434782609,230.87938433636987,6.509630867458347,6.509630867458347,208.45277715514678
519.5108695652174,230.28083927372933,6.264543608661851,6.264543608661856,207.66833870412955
520.1086956521739,229.63181041143437,6.316180219130781,6.3161802191307785,206.81585743767224
520.7065217391304,229.7615922346733,6.183848620125602,6.183848620125602,207.68848231434308
521.304347826087,229.97201755666646,6.050167109276316,6.0501671092763125,207.81314183416623
521.9021739130435,230.6386618808673,6.66457139795689,6.664571397956887,207.51145432861492
522.5,230.69472108827802,6.521192125553496,6.521192125553499,207.0906804504626
523.0978260869565,229.55610086107754,6.411499597274281,6.411499597274285,208.086710833401
523.695652173913,230.07451640825985,6.8728759010603335,6.87287590106033,207.28581286345153
524.2934782608695,230.8814521714339,7.752172938560259,7.7521729385602605,207.83855796570793
524.8913043478261,229.52025184238872,7.009922815034624,7.009922815034624,206.0802338993331
525.4891304347826,230.28278576566555,6.785802237716319,6.785802237716326,206.41618253175764
526.0869565217391,229.71722770488148,6.723197383545093,6.7231973835450916,207.18230209286892
526.6847826086956,230.1138523098833,6.111398531367007,6.111398531367008,208.55118626049082
527.2826086956521,229.89668080077055,6.336202006257243,6.336202006257243,207.7409945716893
527.8804347826086,230.67522390086123,6.65978761357386,6.659787613573862,207.78565919992204
528.4782608695652,230.76731741956502,5.886821303363243,5.886821303363242,208.54993744527832
529.0760869565217,231.20431398985156,5.738713485413678,5.738713485413676,210.63691532322719
529.6739130434783,229.89062465099292,6.204901260510247,6.204901260510242,208.94429618089333
530.2717391304348,228.99130453920668,6.272482979263899,6.272482979263903,208.69590458050456
530.8695652173913,231.04192618706216,6.163823510145604,6.163823510145597,208.95467340468824
531.4673913043479,231.3657421291771,6.849841926628122,6.849841926628122,208.5026503715332
532.0652173913044,231.14049168182632,6.940246541241084,6.940246541241084,208.15674747211463
532.6630434782609,230.98898451770427,6.495821741772508,6.495821741772512,209.51940553961083
533.2608695652174,231.5114777209925,6.1670550994790725,6.167055099479076,209.1430313966494
533.8586956521739,231.49609606009503,6.599521257958397,6.5995212579584,208.9229516191148
534.4565217391304,231.40875157224178,6.413420530402826,6.413420530402826,209.46388754374564
535.054347826087,231.73043217991707,6.0897155064655095,6.0897155064655095,209.01583018897654
535.6521739130435,231.36255982000057,6.4219596660216824,6.421959666021684,208.92303002524432
536.25,231.22765992240306,6.257939391533172,6.257939391533172,208.72352403197323
536.8478260869565,231.46621773394833,6.5874517492906675,6.5874517492906755,208.6528177174241
537.445652173913,231.4914013734443,6.099417642788415,6.099417642788411,209.12880516881506
538.0434782608695,231.8736433973272,6.273915965500813,6.273915965500811,209.7651649060349
538.6413043478261,231.2575787064293,6.153136803512863,6.153136803512863,210.58139029256964
539.2391304347826,231.8526811574833,5.7988985500668715,5.798898550066868,209.14007896950466
539.8369565217391,232.35577367097181,6.143239756587974,6.1432397565879775,211.08375443472863
540.4347826086956,232.90330737249542,6.390175430002708,6.3901754300027065,209.7914191404757
541.0326086956521,232.76467048050685,5.702380888040602,5.702380888040602,210.95868800482734
541.6304347826086,233.02688264209237,5.945484259528501,5.945484259528498,211.25772110888832
542.2282608695652,233.4050246362799,5.998147820533896,5.998147820533896,210.66796169256065
542.8260869565217,232.3595008760175,6.7007289850835345,6.700728985083539,210.56548951590347
543.4239130434783,232.59130619281055,6.703692419932281,6.703692419932278,210.95361249354735
544.0217391304348,232.9156618053817,6.789841338532925,6.789841338532925,211.60578594918098
544.6195652173913,233.31710445987164,5.664490585217293,5.6644905852172895,210.97335316670524
545.2173913043479,232.55732608395076,5.757880575206045,5.757880575206045,212.0866489957205
545.8152173913044,232.92184501575753,6.417023283671237,6.4170232836712415,210.64888226861444
546.4130434782609,232.83143077094823,6.404463205413771,6.404463205413771,211.7798460725186
547.0108695652174,234.15494596622668,5.675716220867981,5.675716220867985,210.2673341864936
547.6086956521739,232.7130197599668,5.945911375403355,5.945911375403352,211.4496369337288
548.2065217391304,233.6311051696626,5.7550242541203165,5.7550242541203165,211.72600646918002
548.804347826087,234.12906402373324,5.883236949193994,5.883236949193991,212.3550562677851
549.4021739130435,232.9720304018648,5.643665756910633,5.643665756910637,212.69440123834534
550.0,233.97059183095345,6.049278904282957,6.049278904282957,212.8099396870584
550.5978260869565,233.59426385112602,5.688531496059146,5.688531496059146,212.7952005407293
551.195652173913,234.02301225377695,6.524207601176718,6.524207601176721,212.7798548390163
551.7934782608695,233.80309976240042,6.262417062743493,6.262417062743497,213.47174871326575
552.3913043478261,234.40705365261763,6.16551734884348,6.165517348843479,212.56073681462277
552.9891304347826,234.15043277024105,6.153146766827827,6.153146766827825,213.30263588927406
553.5869565217391,234.3920816601025,6.470125963216157,6.470125963216153,213.3600406806695
554.1847826086956,233.89612593777827,6.034604212745033,6.0346042127450366,212.47491462830044
554.7826086956521,235.2765296980927,5.849453486621094,5.849453486621094,212.84701880375022
555.3804347826086,234.78654680109446,5.974770100071518,5.974770100071516,212.31521231431432
555.9782608695652,234.34991564781805,6.555171443532779,6.555171443532781,213.60342651483273
556.5760869565217,236.46917304412003,6.1321807289781365,6.132180728978136,215.0841418647193
557.1739130434783,236.19908966301557,6.3956495503465405,6.395649550346537,216.1347171802738
557.7717391304348,236.14133022274655,5.961803619545985,5.961803619545985,215.12101262204098
558.3695652173913,236.45239768447593,5.985648477128677,5.9856484771286755,215.83646367276285
558.9673913043479,236.64901720287804,5.917418721667303,5.917418721667307,216.21055282696707
559.5652173913044,236.36388639038873,5.585601789051033,5.585601789051033,215.71107213547248
560.1630434782609,236.44533640062625,6.289360718458898,6.289360718458905,217.45308582449414
560.7608695652174,236.54638437843334,6.25245346710502,6.25245346710502,216.12448289073146
561.3586956521739,236.4572312134726,6.113681824876421,6.113681824876424,216.53549825285702
561.9565217391304,236.24804330859797,6.196185913135962,6.196185913135962,216.55399231919415
562.554347826087,237.03324715096187,6.009674433827019,6.009674433827018,216.05580992952116
563.1521739130435,237.15234861170438,6.43984467194813,6.439844671948132,216.41344325971303
563.75,236.42804530135075,5.797821572651567,5.797821572651563,216.96243915027313
564.3478260869565,236.36924439790755,6.146377117870307,6.14637711787031,217.82779125523246
564.945652173913,235.90939249482108,5.863822036783572,5.863822036783575,217.04443909415116
565.5434782608695,236.6733509976675,5.545485196986113,5.545485196986118,216.82413342773367
566.1413043478261,239.07023246225248,5.802257040397539,5.80225704039754,218.24266377489602
566.7391304347826,238.75792727288692,5.708426635308576,5.708426635308583,218.64888886085936
567.3369565217391,238.6412896635713,6.01442109059387,6.01442109059387,219.64331041411313
567.9347826086956,238.63133073499816,5.835447381735806,5.83544738173581,218.74872094343516
568.5326086956521,237.98652295669487,6.389023657658234,6.389023657658235,219.06247647288404
569.1304347826086,238.55568437303353,6.259101668273867,6.2591016682738685,219.63885268765705
569.7282608695652,238.94023382124539,6.405752037129572,6.405752037129565,218.9471984469712
570.3260869565217,237.96875249017674,6.305205520166359,6.305205520166367,219.71006489571144
570.9239130434783,239.30774997320827,6.0797036921303125,6.0797036921303125,218.98038799041922
571.5217391304348,238.46704380428616,6.061232354879071,6.06123235487907,218.66604501317894
572.1195652173913,239.0135338030885,5.792700692147739,5.792700692147739,219.88789126856148
572.7173913043479,239.46736900468284,5.563536603970937,5.563536603970937,218.94544031203995
573.3152173913044,238.71152137289343,5.921544555689716,5.921544555689712,219.5437022094728
573.9130434782609,238.59622642221942,5.982566726643188,5.982566726643188,219.95632813508928
574.5108695652174,239.12435672397143,5.6602354013681095,5.660235401368113,219.95505914629913
575.1086956521739,239.54727484187845,5.8192604907447185,5.819260490744729,220.93112187635833
575.7065217391304,239.46767735129976,5.90231597901026,5.902315979010264,220.99858615046153
576.304347826087,239.38504426757675,6.312291364806427,6.312291364806429,220.7462822418199
576.9021739130435,238.96971637085508,5.9207561238504525,5.9207561238504525,221.13545116839381
577.5,239.94362562645867,5.9675121520492205,5.967512152049222,219.976985391396
578.0978260869565,238.98558868023267,6.408645141900578,6.408645141900582,220.5680509703171
578.695652173913,239.95659930759948,6.269626046330215,6.269626046330217,219.8935219527919
579.2934782608695,239.31214818088944,5.6690058267314445,5.669005826731449,220.8731348690883
579.8913043478261,239.1900571428583,6.586306809468095,6.586306809468095,221.8168095238772
580.4891304347826,239.31854235799955,6.1412225314204285,6.141222531420432,220.67612011999606
581.0869565217391,239.18954393984882,6.285972177464076,6.285972177464076,220.94584505203412
581.6847826086956,239.08878726566124,5.843041576313081,5.843041576313085,221.72045135019383
582.2826086956521,239.2141746515691,5.922979640064729,5.922979640064731,221.5733068169135
582.8804347826086,239.4443531118352,5.9366182322565075,5.9366182322565075,220.35925616267787
583.4782608695652,239.8895219068679,6.219680845796984,6.219680845796982,221.63615807228672
584.0760869565217,239.39184662662043,5.520734213454466,5.5207342134544675,221.6532186086056
584.6739130434783,239.78768859365374,6.6338466695322404,6.633846669532237,220.2627352438352
585.2717391304348,240.4401989406171,6.272080939606733,6.272080939606733,221.09501586051329
585.8695652173913,240.6337868537764,5.605694333052802,5.605694333052805,220.33681329219255
586.4673913043479,241.0988671818034,6.1903489210778515,6.190348921077857,220.65995237809565
587.0652173913044,240.55621669735234,5.732808909750431,5.732808909750433,221.7240739339291
587.6630434782609,241.10752676078238,6.525033635131082,6.525033635131082,221.58633531638333
588.2608695652174,240.9431609398519,5.251603467067205,5.251603467067203,221.3092488648146
588.8586956521739,240.29000719120162,5.861974850137887,5.8619748501378846,221.75452291609224
589.4565217391304,240.05779328697372,6.037638138927231,6.0376381389272336,222.3759671737997
590.054347826087,240.27347368169862,5.952236951499618,5.95223695149962,221.96020548071795
590.6521739130435,240.73366803079307,6.586398907400161,6.586398907400163,221.35985782101127
591.25,240.50897017581423,5.723495853487759,5.723495853487759,221.547058960105
591.8478260869565,240.28030659071467,6.139575940829539,6.139575940829538,221.31607445382517
592.445652173913,240.25057523493322,5.677251195748829,5.677251195748827,221.61448887073576
593.0434782608695,241.05909705817584,5.750185837880774,5.750185837880767,221.61829135705253
593.6413043478261,240.8138207010238,6.533560655809214,6.533560655809214,222.54284373514028
594.2391304347826,240.9285678869846,5.8380136739632364,5.83801367396324,222.47022953108169
594.8369565217391,241.15388085698368,5.55347412847434,5.5534741284743365,223.0151989254973
595.4347826086956,240.70552562318724,6.077277032147678,6.077277032147678,223.56024292700428
596.0326086956521,243.87648860338155,8.18146577232829,8.18146577232829,222.55693283665644
596.6304347826086,241.1978847204976,5.8675611335397635,5.8675611335397635,222.13862639294078
597.2282608695652,241.75525618198787,5.75518601846853,5.755186018468526,223.8584625690664
597.8260869565217,242.03309058154133,6.453538074272189,6.453538074272184,223.79869923570178
598.4239130434783,241.73487562930484,5.928746241639094,5.9287462416390975,222.92166469707962
599.0217391304348,242.05644562033655,5.775918865838913,5.775918865838913,224.12376077837575
599.6195652173913,241.47887716637763,5.598367829232844,5.598367829232837,223.81275770315992
600.2173913043479,240.96969625395283,5.470455185383624,5.470455185383624,224.61072841165094
600.8152173913044,241.70891376839123,5.892275770568257,5.892275770568259,224.0738224600949
601.4130434782609,241.47632834261756,5.499960615529075,5.499960615529082,223.35165518769648
602.0108695652174,241.75654455543338,5.791840230851934,5.791840230851938,223.75471094684926
602.6086956521739,241.95566783280535,6.1011043866384425,6.101104386638441,224.06800848499876
603.2065217391304,242.49370799811896,6.000769677952778,6.000769677952771,224.0394317901615
603.804347826087,241.81555163337433,5.944951476765306,5.944951476765306,223.84152037957236
604.4021739130435,241.9994391598284,6.767879988855867,6.767879988855872,223.89821377114063
605.0,242.2409563818451,5.98256961435159,5.982569614351587,224.04306425902755
605.5978260869565,241.524668557787,5.810805195016801,5.810805195016801,224.92126019210744
606.195652173913,242.62360419767188,5.6291199965972,5.6291199965972,224.27844319353122
606.7934782608695,241.63248389279812,5.940308921243135,5.940308921243143,224.48510463547225
607.3913043478261,241.60405979571763,6.002955237339046,6.00295523733905,225.21686295109834
607.9891304347826,241.65748746167893,6.242860961775087,6.242860961775087,223.56302271578812
608.5869565217391,242.73819898181432,6.108466542202136,6.108466542202139,223.70089754139414
609.1847826086956,242.98877355406657,6.3330743341508775,6.333074334150879,225.68436967295656
609.7826086956521,242.13917780609404,6.007170156812582,6.007170156812582,225.81482689523077
610.3804347826086,243.30706522767179,5.919617107742051,5.919617107742055,225.30227620126885
610.9782608695652,242.9549488170002,5.242239113763267,5.2422391137632705,225.5968179814232
611.5760869565217,241.9870027231349,6.040687522698545,6.040687522698547,225.76862465355723
612.1739130434783,243.0768927164733,6.011675745532312,6.011675745532314,225.60595356007877
612.7717391304348,242.57606246882813,5.486013708748167,5.486013708748168,225.22205197111734
613.3695652173913,243.2535647945245,6.180637781013654,6.180637781013652,225.42476903760453
613.9673913043479,243.70103273484392,6.0918019662617215,6.0918019662617215,225.72639905360626
614.5652173913044,243.5500687396438,5.3735868546649765,5.373586854664969,225.72182090736584
615.1630434782609,243.38139966245328,5.891832408336842,5.891832408336838,224.97668177196158
615.7608695652174,243.4358980525324,5.732590476068547,5.732590476068547,225.69481332590806
616.3586956521739,242.93211970702376,5.822104615889529,5.822104615889526,225.75359932477215
616.9565217391304,242.93736580368596,6.2947653496496985,6.2947653496496985,226.09375543701836
617.554347826087,242.35496309168153,6.228816599104062,6.228816599104065,225.38378690808756
618.1521739130435,242.92823152285152,6.087661776101143,6.0876617761011405,224.99585634656142
618.75,243.3840568759247,5.780092599090606,5.780092599090607,226.3657522018156
619.3478260869565,242.33222887966997,5.832359712064498,5.8323597120645,226.6247610942278
619.945652173913,242.67420349762642,5.9334882318854705,5.933488231885472,225.21584718459357
620.5434782608695,243.01066047674945,5.852438726976821,5.852438726976819,225.21946429295772
621.1413043478261,243.11565514488674,6.682395957920221,6.682395957920221,226.29723345033278
621.7391304347826,243.0117224394519,6.096971981275786,6.0969719812757805,226.3926838836858
622.3369565217391,244.32553928080134,6.0372640775675235,6.03726407756752,226.50200814261834
622.9347826086956,244.29348039752406,5.539596821682433,5.53959682168243,227.42292909819798
623.5326086956521,244.73177546905657,5.536326027695251,5.536326027695251,226.92356098474943
624.1304347826086,244.13742391004075,6.234176462567272,6.234176462567274,224.68468528960554
624.7282608695652,243.3428773580387,6.515131279058204,6.515131279058203,226.7332147916989
625.3260869565217,243.6578594238071,5.7124606040564245,5.712460604056431,227.65452948067124
625.9239130434783,243.90092979584318,5.9756233084965675,5.975623308496562,225.98823676596493
626.5217391304348,243.1017547341165,5.897253598965,5.897253598964997,227.01885248775247
627.1195652173913,244.0235018304116,5.651934086505516,5.651934086505518,227.3081218774316
627.7173913043479,243.0006549521682,5.498532412622663,5.498532412622663,226.23751481158007
628.3152173913044,243.7097482621352,5.838667140565114,5.838667140565111,226.86465501868628
628.9130434782609,243.70569637331553,5.524944600060349,5.524944600060352,226.51668380825137
629.5108695652174,244.51220967702184,5.747709970565659,5.747709970565663,226.9495436447907
630.1086956521739,244.43419199060094,5.739213206948142,5.739213206948138,227.68281609697414
630.7065217391304,244.46972488440372,6.045966503941246,6.04596650394125,227.96836317508036
631.304347826087,243.9221685327185,5.848105531819194,5.848105531819194,228.00500420055877
631.9021739130435,243.0410365923403,6.443083390883459,6.44308339088346,225.39892470212948
632.5,242.7154368036773,6.311548371081229,6.311548371081231,226.93894564441914
633.0978260869565,242.40479705766336,5.272411954008301,5.272411954008301,225.07584225799815
633.695652173913,241.85318348838376,5.121668632931948,5.121668632931943,225.75835638802377
634.2934782608695,241.7121049542589,5.623430776241574,5.623430776241575,225.6234225117586
634.8913043478261,241.7826879017378,5.321264030425486,5.3212640304254855,225.55627671621914
635.4891304347826,241.42024790964845,5.962466309759872,5.962466309759875,225.17996760385086
636.0869565217391,242.03966188799788,6.165348590179939,6.165348590179936,226.5703606031241
636.6847826086956,242.98245506581972,5.429558687301487,5.429558687301482,226.15854810556493
637.2826086956521,242.99965160673764,6.388304538239255,6.388304538239251,225.16707324987917
637.8804347826086,242.50278782992146,6.424039746657781,6.424039746657781,226.29210953240022
638.4782608695652,242.94027755070485,5.818421091886241,5.818421091886244,225.3371252940534
639.0760869565217,242.67067662083406,6.332085528111024,6.332085528111029,225.626488991739
639.6739130434783,242.52744236488627,5.93339551096106,5.933395510961064,224.96567630109342
640.2717391304348,242.15377147297616,6.103470929736771,6.10347092973677,224.42788391626877
640.8695652173913,242.43466063078014,5.7134407413750505,5.713440741375054,224.9884025760542
641.4673913043479,242.6622257307473,6.281733900936848,6.281733900936848,225.3042943801469
642.0652173913044,243.0173543012007,5.814779236067524,5.814779236067518,225.01138930474244
642.6630434782609,243.79338991790044,6.009646640522551,6.009646640522551,225.47843175514242
643.2608695652174,243.20758463741512,5.93321671879226,5.933216718792257,225.52547642750497
643.8586956521739,242.602082758896,6.030918441074813,6.030918441074813,226.02490718627283
644.4565217391304,243.59324654639678,5.928973375154631,5.928973375154629,225.81425965246746
645.054347826087,242.99454502008274,5.891766165287246,5.891766165287249,225.47748466254683
645.6521739130435,243.13507421812366,5.942785445676944,5.9427854456769404,225.49108998168893
646.25,242.8879178810502,5.693299206959671,5.693299206959666,225.79197432853715
646.8478260869565,241.8687390723515,5.5689067190287505,5.5689067190287505,225.93689754368287
647.445652173913,243.49586698426043,5.626960831749346,5.62696083174935,226.68908930302416
648.0434782608695,243.21295014944872,6.829975650064806,6.829975650064806,225.2057544815608
648.6413043478261,242.36732692291045,6.531267777692108,6.5312677776921095,226.03365956145052
649.2391304347826,243.05643473139057,6.056122816965986,6.056122816965986,225.92472294086707
649.8369565217391,244.78546987433302,5.831749307453786,5.83174930745379,224.07122547069343
650.4347826086956,242.61360204204908,6.005650007346449,6.005650007346451,226.1284594020847
651.0326086956521,242.51158926156535,5.190377701534637,5.190377701534641,226.8344812804399
651.6304347826086,243.4550238294924,6.309239051274821,6.309239051274816,225.93473348396085
652.2282608695652,243.96462155894835,6.036716418149595,6.036716418149598,226.33984688237805
652.8260869565217,243.4017979208872,3.5943873692946755,3.5943873692946764,228.7931705400942
653.4239130434783,243.52268519681485,6.498944923905828,6.49894492390583,225.94584299486394
654.0217391304348,243.4446161001301,5.690802765184828,5.690802765184824,226.27083588783904
654.6195652173913,243.31501431505382,5.624969329560676,5.62496932956067,227.0459626677535
655.2173913043479,243.34321861542566,6.027126974956237,6.027126974956235,225.41906292831007
655.8152173913044,243.72682291971213,5.994268132737042,5.994268132737042,225.82838743512343
656.4130434782609,243.49531920087426,5.94054391315845,5.94054391315845,226.83427137681446
657.0108695652174,243.8419113215685,5.64326661630891,5.643266616308909,225.52007599781928
657.6086956521739,242.83609192273727,5.9718244058917,5.971824405891701,226.12963320476814
658.2065217391304,243.5585373723049,6.084827871238447,6.084827871238447,227.03027513817088
658.804347826087,243.8116091764868,5.742172288687555,5.7421722886875495,226.12449154163014
659.4021739130435,243.82797477504744,6.510372557199613,6.510372557199621,226.0440072992185
660.0,243.2311737470871,6.2570840604622235,6.257084060462233,226.52386977817943
