z in mm,sigma xx in mm2,sigma xy in mm2,ysigma yx in mm2,sigma yy in mm2
660.0,181.19382099191108,12.092553643645346,12.09255364364535,153.86262243495625
659.3785310734463,179.708584183279,12.428915267706843,12.428915267706843,153.74310855870144
658.7570621468926,183.2272273984876,12.143776858053737,12.14377685805374,154.68952303972384
658.1355932203389,182.31329615476582,12.539553413975536,12.539553413975536,154.61855744761127
657.5141242937854,182.37813711438662,12.654347407402195,12.654347407402193,154.15800487111488
656.8926553672317,181.05318037319353,12.213809954043635,12.213809954043633,157.40320079452198
656.271186440678,181.2423805528268,12.707493966520449,12.707493966520452,157.25668168670794
655.6497175141243,181.44198892364847,12.244704323434176,12.244704323434174,156.8360832358714
655.0282485875706,182.3522867034796,12.286744444973252,12.286744444973252,156.2764949606404
654.4067796610169,182.44246629837627,13.781806384086119,13.781806384086119,155.2688393071499
653.7853107344632,182.93437478146132,13.209166779533463,13.209166779533462,160.26923160182167
653.1638418079096,185.38185987828757,13.213243519186188,13.213243519186188,158.2808602253102
652.542372881356,181.34932021819083,14.001609544938127,14.001609544938123,158.72041886812747
651.9209039548023,180.8689756221898,13.712901114952942,13.712901114952942,158.39853677505317
651.2994350282486,179.97423835538766,12.617333501521449,12.617333501521452,154.23964198329043
650.6779661016949,180.58490562427028,13.384168731918514,13.384168731918518,158.61649563452406
650.0564971751412,181.61232683965045,13.554316836776643,13.554316836776643,160.1185056076111
649.4350282485875,178.70022049410352,13.601914782784128,13.60191478278413,157.15090531436837
648.8135593220339,181.01889588941884,13.449215719813886,13.449215719813882,157.9599187145039
648.1920903954802,179.61557594984555,12.965526417523526,12.96552641752352,157.7488164539766
647.5706214689266,180.65868429485337,12.988492837645003,12.988492837645003,156.46695366466793
646.9491525423729,182.53714718554255,13.135041614199405,13.135041614199405,161.41298747188213
646.3276836158192,179.63030376765147,13.647331521046343,13.647331521046345,157.51114044083687
645.7062146892655,182.1295467392847,12.796824723773469,12.796824723773469,159.79585830904497
645.0847457627119,180.485830081086,13.342255278288032,13.34225527828803,159.59037188218812
644.4632768361582,181.5329297947232,13.246109168465352,13.246109168465354,159.5942961092252
643.8418079096045,180.78719843458867,13.600371447864866,13.600371447864866,160.14183390743452
643.2203389830509,180.08480053915287,13.330931551132032,13.330931551132032,157.8102347190885
642.5988700564972,180.0350829386357,13.423259838299323,13.423259838299323,158.04658894441525
641.9774011299435,178.01764397410304,13.48619688197155,13.48619688197155,157.22482205089693
641.3559322033898,179.92749482207597,13.337158679172585,13.337158679172585,161.31266576452919
640.7344632768362,179.14555802602396,13.202229815056603,13.202229815056603,158.34210845446614
640.1129943502825,181.95586306716424,12.877570220900546,12.877570220900546,159.3547763868147
639.4915254237288,180.3749255509327,13.404996284687629,13.404996284687627,160.03646045855547
638.8700564971751,178.42442557538732,14.362195311801687,14.362195311801688,158.70730278249405
638.2485875706215,178.39331788250428,14.079771602486153,14.079771602486149,160.4054663283171
637.6271186440678,181.49400708754817,14.098076320012419,14.098076320012419,160.99561525907328
637.0056497175141,179.9119292789062,13.834230741724989,13.834230741724989,160.21740649688772
636.3841807909605,179.17434989851048,13.920409653067537,13.92040965306754,160.17845278140484
635.7627118644068,180.70100062547868,13.941100851109383,13.941100851109383,161.09277489615812
635.1412429378531,179.6885404402882,13.676072304681655,13.676072304681655,161.16193007674107
634.5197740112994,180.2860315828816,13.487244692710354,13.487244692710357,160.39286950938987
633.8983050847457,181.43503267396062,13.630562638931483,13.630562638931483,162.09390323384662
633.276836158192,180.01679910407017,13.875982958665833,13.87598295866583,161.72141033633727
632.6553672316384,179.1974827929496,13.986086967860926,13.98608696786093,162.14274634670178
632.0338983050848,179.50102069963944,14.142349605855436,14.142349605855436,160.34440612137013
631.4124293785311,179.0200594790505,14.668913404024611,14.66891340402461,162.83310425953445
630.7909604519774,178.63024429164668,13.840471052999336,13.840471052999339,161.76982383441108
630.1694915254237,178.93208535124847,14.782741861712477,14.782741861712477,161.2659114254068
629.54802259887,179.14332592147986,13.852264370977649,13.852264370977649,161.3659633528075
628.9265536723163,179.76756946560215,14.087898683546586,14.087898683546586,162.76424069814018
628.3050847457627,177.34762548227906,13.940052203478368,13.940052203478366,162.0467068102365
627.6836158192091,178.96189741975266,14.498791460696621,14.498791460696616,164.1178355840118
627.0621468926554,179.40002831728137,14.121806428701287,14.121806428701289,163.55608514632263
626.4406779661017,179.48281436166303,14.545508664664066,14.545508664664066,164.51573336477975
625.819209039548,179.6611960486738,14.412311370778307,14.41231137077831,163.79592562620817
625.1977401129943,177.85563493748936,14.065856104435905,14.065856104435905,163.86732760463738
624.5762711864406,179.52858653932583,14.157670191012198,14.157670191012201,165.58149147671904
623.954802259887,180.07527512286183,14.339246130552384,14.339246130552382,162.78879181108377
623.3333333333334,180.7545321960069,14.514207297635927,14.514207297635927,164.95214594112912
622.7118644067797,179.5619069654719,14.546068438251492,14.546068438251488,162.4988907186498
622.090395480226,177.9296827329445,14.785787139122709,14.785787139122704,164.06607987258187
621.4689265536723,178.78910087291675,14.848219765518937,14.848219765518937,165.16671691285603
620.8474576271186,179.70523253552724,14.539371266797788,14.539371266797788,164.92708614646676
620.2259887005649,178.93965611009833,14.702637187189326,14.702637187189326,167.61442115427815
619.6045197740114,179.0550313009354,15.108965458901956,15.108965458901956,163.63660018204848
618.9830508474577,177.2580292216605,14.390549833084298,14.390549833084298,167.0952257618896
618.361581920904,178.38260705599586,15.110243701448764,15.110243701448764,165.88917981365805
617.7401129943503,179.25606906313263,15.249448189111627,15.249448189111627,164.82967498785123
617.1186440677966,177.56972104709098,14.999289229009852,14.999289229009852,165.91244302781385
616.4971751412429,176.4996098823083,14.740588052664352,14.740588052664352,164.66761320988678
615.8757062146892,177.47027110985084,15.000641837050141,15.000641837050146,167.7855492679974
615.2542372881356,178.7616719999008,15.048290501829616,15.04829050182962,166.9698684376272
614.632768361582,177.49123344401056,14.790122571817133,14.790122571817133,165.8764262084227
614.0112994350283,177.44342402433102,14.678562648552814,14.678562648552814,167.796299515753
613.3898305084746,177.09705744695822,14.725282253066176,14.725282253066176,166.1642396916424
612.7683615819209,178.72451914882427,14.739285908364149,14.739285908364147,165.70305045735375
612.1468926553672,179.2133310671452,14.772255115949497,14.772255115949497,167.2970041203895
611.5254237288135,179.65873162609697,14.804033227569457,14.804033227569457,168.6312582040088
610.9039548022599,177.041308719715,14.998075082516435,14.998075082516435,166.72642819892386
610.2824858757062,176.61654737841607,15.35168160949849,15.35168160949849,167.78905763830682
609.6610169491526,177.04952091335545,15.753173098671432,15.753173098671432,166.58374874423475
609.0395480225989,175.4535399836698,14.677120182788908,14.677120182788913,168.73306581300864
608.4180790960452,176.977105864071,15.143560901716805,15.143560901716805,167.88767184590662
607.7966101694915,175.69009703679512,14.783631963627615,14.783631963627615,169.46174587601752
607.1751412429378,175.96607731451053,14.855417519022566,14.855417519022561,165.22250452298164
606.5536723163842,176.3979242920935,14.467046785462841,14.467046785462838,167.36573183614507
605.9322033898305,177.57252729933765,15.039669183752382,15.039669183752382,167.09354349854794
605.3107344632768,176.7148582928745,15.690420683295798,15.690420683295798,169.31167953305717
604.6892655367232,175.76999024247107,15.111312051667893,15.111312051667896,168.3485981106551
604.0677966101695,176.0782463285996,15.130535415096308,15.130535415096313,167.56054309853462
603.4463276836158,177.79418772730114,15.226691446244253,15.226691446244256,169.72334933844397
602.8248587570622,175.91680279459538,14.4232023139215,14.423202313921502,170.18001256028987
602.2033898305085,176.7282056403234,15.26122339603888,15.26122339603888,168.22009883188102
601.5819209039548,176.88934517326604,14.975333470916071,14.975333470916068,169.41965922373285
600.9604519774011,175.10706525864887,14.968389957842865,14.96838995784287,168.4629208206639
600.3389830508474,175.17233372588458,15.378475852813033,15.378475852813033,169.45132207679615
599.7175141242938,176.16568758982416,14.869000549123509,14.869000549123513,169.30913731840022
599.0960451977401,174.16719924505242,15.339222756524402,15.339222756524402,170.5265387048366
598.4745762711864,175.68206986906563,15.15530997441204,15.15530997441204,170.94599680279407
597.8531073446328,176.6030409018791,15.68316542331277,15.68316542331277,170.86468988336827
597.2316384180791,175.92078158515997,14.766846020360378,14.766846020360378,171.5975252674109
596.6101694915254,175.93059424651614,15.623858526745396,15.623858526745396,170.17364936733156
595.9887005649717,176.26510924239932,14.997168607521896,14.997168607521896,169.4219708992436
595.367231638418,175.91939434164624,15.326388915807486,15.326388915807488,171.6771625280008
594.7457627118644,175.9783913057618,15.912879429249186,15.912879429249182,171.89704568369933
594.1242937853108,174.88728013942298,15.947974338619593,15.947974338619593,172.4347703033097
593.5028248587571,175.39858468778826,15.979764766170474,15.97976476617048,170.94572704113028
592.8813559322034,175.38968881440817,15.628209061365013,15.628209061365013,170.87107197189513
592.2598870056497,174.8978308503298,15.684769183555824,15.68476918355582,170.59301147287513
591.638418079096,176.11423627862638,15.465171021132413,15.465171021132415,171.59161699308115
591.0169491525423,175.1396159401998,14.942512832162247,14.942512832162246,169.72529563396458
590.3954802259886,175.31896632734376,16.02477968952076,16.024779689520756,172.10737721925284
589.774011299435,176.1087821081293,15.430859170461124,15.430859170461124,173.50354734741737
589.1525423728814,175.06885667414176,15.559751793337014,15.559751793337014,172.91989949188334
588.5310734463277,173.9978220889211,16.16939376530936,16.169393765309355,172.1447184263527
587.909604519774,174.41607364674445,16.082218551788408,16.082218551788408,171.73897962026473
587.2881355932203,175.2650359837901,16.576501847467345,16.576501847467345,171.0974494513012
586.6666666666666,173.41259695485175,15.77076970774872,15.77076970774872,170.01864188822387
586.0451977401129,173.58490494359634,16.002748578070666,16.002748578070666,173.81993355707314
585.4237288135594,173.779164591741,16.327764040653634,16.327764040653634,173.9500203798008
584.8022598870057,174.47721151643617,15.393166907067839,15.393166907067839,173.23872794485945
584.180790960452,175.55025077774076,16.3200238416522,16.320023841652198,173.815960226928
583.5593220338983,176.11570548110882,15.899811249985365,15.899811249985364,173.95849807307442
582.9378531073446,175.5275275397039,16.142259312600505,16.142259312600505,172.18884018683482
582.3163841807909,175.2019821849943,16.076185437585394,16.076185437585387,173.52363837906813
581.6949152542372,175.05810325079617,15.415268515594985,15.415268515594985,175.78007538269097
581.0734463276837,173.54728081933578,15.927150873399041,15.927150873399041,173.8327167614243
580.45197740113,174.91122259050536,16.32070033638529,16.32070033638529,175.1877509049454
579.8305084745763,174.44936385652377,16.152965977496194,16.152965977496198,174.573777218663
579.2090395480226,173.8994608644155,15.73455196822425,15.734551968224247,174.77373772040272
578.5875706214689,173.58209653681146,15.358361901156984,15.358361901156984,174.95533126447285
577.9661016949152,174.3750009260045,15.507538368893272,15.507538368893266,177.09582110972767
577.3446327683616,172.2648665273046,16.20641282809596,16.206412828095964,175.4469580142982
576.723163841808,172.31730336409288,15.63816278552551,15.63816278552551,175.33004261746598
576.1016949152543,174.8228137357611,15.773520238009702,15.773520238009702,176.1122322862332
575.4802259887006,175.56936406364994,16.23287752433669,16.23287752433669,174.93733699379518
574.8587570621469,173.70857777862548,16.237879053045575,16.237879053045575,175.6389183184877
574.2372881355932,173.84445648175767,16.1395484074744,16.1395484074744,175.42897726537046
573.6158192090395,173.79673018855678,16.496525299063194,16.4965252990632,175.61092757496812
572.9943502824858,174.17670167268034,16.838465536998473,16.83846553699847,176.0837265379315
572.3728813559322,173.082470509482,17.01131349560957,17.01131349560957,175.5599534668676
571.7514124293785,174.83506377441,15.676457649145291,15.676457649145291,177.53975111948594
571.1299435028249,173.7404311206911,16.648684580488645,16.648684580488645,177.86237748982853
570.5084745762712,174.05670568260393,16.308157245168587,16.30815724516859,177.05510218237805
569.8870056497175,171.7654369566559,16.414318298835116,16.414318298835116,174.93936842620846
569.2655367231638,173.10781317001855,15.950959423331378,15.950959423331382,176.7700968146324
568.6440677966102,173.28311388757618,16.133661613999937,16.13366161399994,176.13349198874542
568.0225988700565,173.48455257498105,16.984367061792327,16.984367061792323,177.67419473127
567.4011299435028,174.5639476367392,16.310233827462742,16.310233827462742,176.78234557347153
566.7796610169491,173.46405647040757,16.93261728597233,16.932617285972324,177.65248526983743
566.1581920903955,172.8459918388427,16.492543340727032,16.492543340727032,176.85435837482362
565.5367231638418,173.04552512479944,16.68399272628999,16.68399272628999,177.22985461408751
564.9152542372881,171.49277796260117,16.48359792961495,16.48359792961495,176.33481784458317
564.2937853107344,171.50068709140137,16.285322784571644,16.285322784571648,177.01884698537955
563.6723163841808,172.45792569486295,16.138428240708517,16.13842824070852,178.96385557118552
563.0508474576271,172.890122574788,16.791095507088734,16.79109550708873,178.47735678920213
562.4293785310734,173.35469375038576,16.109149638918222,16.10914963891822,178.13027801592935
561.8079096045198,173.90923064394966,16.046882804797875,16.046882804797878,179.21231558371852
561.1864406779661,173.5047418492502,16.715403272986727,16.715403272986727,179.42083495428636
560.5649717514125,172.8588831520496,16.574449427181033,16.574449427181033,180.34418507369435
559.9435028248588,173.30470325062592,17.25456570363564,17.254565703635645,177.21294644014034
559.3220338983051,172.28558607967958,16.61678400134483,16.61678400134483,181.48397409638358
558.7005649717514,173.69942027060992,16.768668468860934,16.768668468860934,178.99837992377434
558.0790960451977,171.06510223884595,16.61593991151295,16.61593991151295,180.49012979553325
557.457627118644,172.0443590376137,16.175944080136436,16.175944080136436,178.6120206472862
556.8361581920904,172.64532274282888,16.812732010691445,16.812732010691445,180.05803356610699
556.2146892655367,170.55725022399594,16.76349050595528,16.76349050595528,181.0591211248843
555.5932203389831,171.91838509616963,16.620186595000263,16.620186595000263,178.52165925902838
554.9717514124294,170.41974498060875,17.351508405345964,17.351508405345964,180.88146717583913
554.3502824858757,171.10171520370585,16.913029436012447,16.91302943601244,181.86504113411854
553.728813559322,171.36466515240937,16.432834556739795,16.432834556739795,180.2847131534929
553.1073446327683,170.260916725599,17.498715533063606,17.498715533063606,180.4615860652307
552.4858757062146,170.88292065880796,16.957705546276188,16.957705546276188,179.7382023419149
551.8644067796611,171.72507423095158,16.618225885320534,16.618225885320534,179.7631235010298
551.2429378531074,172.32296322153405,17.15225217607878,17.15225217607878,180.57367556333662
550.6214689265537,170.93917164981656,17.689543113476052,17.689543113476056,180.9947158363911
550.0,171.21877350601588,17.121218998566,17.121218998566,181.03747161113668
549.3785310734463,171.18332329570296,17.18952660467625,17.18952660467625,180.04253079626486
548.7570621468926,171.3582210672337,16.963105905486564,16.963105905486564,182.6439411908795
548.1355932203389,173.3544117493162,17.808502519407455,17.808502519407458,182.07682706273
547.5141242937852,172.14286405127962,17.294305766901022,17.294305766901026,182.40267454451296
546.8926553672317,171.04519940147424,16.924476916211862,16.924476916211862,182.68157277797073
546.271186440678,173.55491530547903,17.234575670926517,17.234575670926517,184.527398727688
545.6497175141243,173.1688802106238,18.486713117301015,18.486713117301015,183.9421316950206
545.0282485875706,173.43280300618383,17.171303521786534,17.171303521786534,181.7106184096918
544.4067796610169,171.87131988032678,17.144714607889423,17.144714607889416,183.18403808759876
543.7853107344632,172.3430853667841,17.645310908419994,17.645310908419994,184.34021526733008
543.1638418079096,172.1903610426985,17.29642196488502,17.296421964885024,182.9208716344028
542.542372881356,171.4912453628787,17.430242681329844,17.430242681329844,183.58382032927122
541.9209039548023,172.79484519440092,17.734418295633795,17.73441829563379,186.38686727573418
541.2994350282486,175.33632878475174,17.271494312056117,17.271494312056117,183.0554543447156
540.6779661016949,171.10171704605472,17.626340402975718,17.626340402975718,185.11146759596556
540.0564971751412,172.64299638166636,17.27301492275822,17.273014922758215,185.03994857304303
539.4350282485875,171.1002262206012,17.483785790671057,17.483785790671053,184.97105886319437
538.8135593220339,172.1533867946336,17.577705618469405,17.577705618469405,184.31580203178027
538.1920903954802,171.26917327924338,17.885985530779653,17.88598553077966,184.41351614174084
537.5706214689266,170.82995123314427,18.141968994512226,18.141968994512233,185.0185653394886
536.9491525423729,169.74025421650006,18.328197666050254,18.328197666050254,184.00993254056962
536.3276836158192,169.6815850115932,17.721895802367328,17.721895802367328,184.51819028990153
535.7062146892655,169.83033704960351,17.257320502521267,17.257320502521267,184.84898640720863
535.0847457627119,169.66399037336177,17.658805455493216,17.658805455493212,185.2602468961565
534.4632768361582,170.221464966435,17.70279782067975,17.702797820679745,184.6474146199064
533.8418079096045,171.73248150806552,17.670518445065007,17.670518445065003,184.73776671513735
533.2203389830509,172.22649322826257,17.56730135857993,17.56730135857993,185.0786173936782
532.5988700564972,170.31347454511032,17.53693818767209,17.536938187672085,187.29882964973945
531.9774011299435,170.4127047651112,18.055575125997542,18.055575125997542,187.175637005949
531.3559322033898,171.1002939132776,17.40702871585719,17.40702871585719,185.96904518747533
530.7344632768361,170.82392483006214,17.811104211004235,17.811104211004235,185.54101226599334
530.1129943502824,169.74692742530738,18.148890454425445,18.148890454425445,186.52370930331332
529.4915254237288,169.1343169136199,17.464642609699673,17.464642609699673,186.87531737690148
528.8700564971751,171.72302536623425,18.134762601378398,18.134762601378398,184.60584392754404
528.2485875706215,170.91493097541743,18.122071589494347,18.122071589494347,185.85421685575014
527.6271186440678,172.44202889159502,17.759239984589207,17.75923998458921,186.09064842102666
527.0056497175141,171.06053321878878,17.41275923307752,17.412759233077512,187.17695883175853
526.3841807909605,168.8909930583124,17.369319414154795,17.369319414154795,186.96935295842727
525.7627118644068,170.26431788770006,17.24491312757078,17.244913127570783,186.75048996898835
525.1412429378531,169.72863647606067,17.83643668326647,17.836436683266474,184.53749170577734
524.5197740112994,168.47547296994333,18.023945204625925,18.023945204625917,186.7036110725866
523.8983050847457,169.36384695697603,17.620290252441098,17.620290252441098,185.6715306569734
523.276836158192,169.21103080253195,17.667879802960616,17.667879802960616,187.8413365993631
522.6553672316384,170.7174474517292,18.156859624985955,18.15685962498596,188.61790350600614
522.0338983050847,169.0128534415107,18.298251175167056,18.298251175167056,187.38986598263597
521.4124293785311,169.32871973663504,18.52003201850502,18.520032018505024,186.09782728327778
520.7909604519774,170.31601042446553,17.360804161681834,17.360804161681834,187.616400461743
520.1694915254237,171.19365455733782,18.062457766943535,18.06245776694353,188.13756002137967
519.54802259887,168.0778697405398,18.056009352148823,18.056009352148827,189.38007100790736
518.9265536723163,169.52743109470293,18.19455300029616,18.194553000296157,189.6097843564586
518.3050847457628,170.11116758485858,18.168895030877763,18.16889503087776,186.34633617772357
517.6836158192091,170.0777752232725,18.240939309504885,18.240939309504892,189.338406459869
517.0621468926554,170.1317744020201,18.534355169918786,18.534355169918783,189.34295817117845
516.4406779661017,167.3217152280965,18.36924156506564,18.36924156506564,188.32058143357736
515.819209039548,169.0108972278552,17.848727764266776,17.848727764266776,188.7290993275111
515.1977401129943,168.3091768944215,18.2316274746599,18.23162747465989,188.45633522744902
514.5762711864406,167.77229300363405,18.619972556941175,18.61997255694117,189.8860354361244
513.954802259887,168.52315484843032,18.135890668253616,18.13589066825361,190.1678995989961
513.3333333333333,168.8125602196633,18.162472238126117,18.162472238126117,189.26666136967884
512.7118644067797,168.95259645947752,18.46111888245434,18.461118882454336,190.95385233899802
512.090395480226,169.31556044913273,18.547900242055306,18.54790024205531,190.4756206453719
511.4689265536723,169.39764316163252,18.209718187469765,18.209718187469765,190.84206568155346
510.8474576271186,169.57603560239133,18.270546246722095,18.270546246722095,190.04183203173093
510.2259887005649,169.419382459914,17.735023929798185,17.735023929798185,191.67187751607642
509.6045197740113,170.65100962830684,17.996998662469135,17.996998662469135,191.25486050015405
508.9830508474576,168.54607951979392,18.40960470386771,18.409604703867707,191.81387390670176
508.361581920904,167.97086531827009,18.518263411670116,18.518263411670112,190.80859537760415
507.7401129943503,168.2555626119031,18.20510884457169,18.20510884457169,191.68811377237677
507.1186440677966,168.94626007938402,18.07558051799039,18.07558051799039,189.26666271374404
506.4971751412429,168.40563566383113,18.66477114864758,18.66477114864758,190.7520981008582
505.8757062146892,169.26654081301186,18.206020799056542,18.206020799056542,191.61880850675408
505.2542372881356,168.4728159852639,18.491277704776973,18.491277704776973,192.07811215540008
504.6327683615819,170.84149636274822,18.19187404772575,18.191874047725758,194.17038914172846
504.01129943502826,168.98079212196782,18.560756694759352,18.56075669475935,191.84111321116146
503.3898305084746,167.6283068560146,18.09490231456865,18.09490231456865,192.6498033890715
502.7683615819209,168.89485704540834,18.575646165749486,18.575646165749486,191.34642632801675
502.1468926553672,168.85642577829753,18.238684289632904,18.23868428963291,192.49915830632884
501.5254237288135,168.64557875041203,17.946642903310103,17.946642903310106,192.028924838483
500.9039548022599,167.777296425528,19.139154505376883,19.139154505376883,191.57282306817922
500.28248587570624,168.14949536330246,18.42185184608806,18.42185184608806,192.42334634036305
499.66101694915255,168.02335104906498,18.761448233978143,18.76144823397814,191.07490102276032
499.03954802259886,168.52247590294635,18.863297708379292,18.86329770837929,192.52842283116098
498.4180790960452,168.9098719091932,18.723537541626545,18.723537541626545,191.70786225233456
497.7966101694915,169.4779250150369,18.850280145550432,18.85028014555043,192.58096954108777
497.17514124293785,169.79601593258562,18.21763792279049,18.21763792279049,192.21728956281748
496.55367231638417,166.27422794582154,18.825405734894492,18.825405734894485,192.52475561282233
495.93220338983053,167.96192593233107,17.807221223132036,17.807221223132036,193.2857573497574
495.31073446327684,167.70324796285394,18.218142982305856,18.218142982305856,193.24854528007623
494.68926553672316,168.6638206457456,19.02631381739279,19.02631381739279,193.74393159029168
494.06779661016947,169.37892141721065,18.58376983588498,18.58376983588498,195.4984707094177
493.4463276836158,168.09972750083313,18.87734170176462,18.87734170176462,194.3959689247634
492.82485875706215,166.17606065641067,18.20579634059178,18.20579634059178,193.15177837698883
492.20338983050846,166.714590418953,18.158854113572406,18.15885411357241,193.64515768917772
491.5819209039548,168.59087109519476,18.531591302662182,18.531591302662182,196.28770150558384
490.96045197740114,167.86925455215646,18.858513402863508,18.858513402863505,194.41479110756896
490.33898305084745,167.47634373777882,18.517707043199998,18.517707043199998,194.79297532200457
489.71751412429376,166.7794286037172,19.761732455852197,19.761732455852194,194.782320128145
489.09604519774007,167.86612507949968,18.568809259179915,18.56880925917992,194.9512990432178
488.47457627118644,165.9062081616181,19.120709291786262,19.12070929178626,194.53294812658487
487.85310734463275,167.76280630032767,19.065449028282302,19.065449028282305,195.8192621122621
487.2316384180791,166.10808035638627,19.094975111876245,19.094975111876245,192.9680301261811
486.6101694915254,166.23705945961302,19.192067033039496,19.192067033039496,195.12737179435723
485.98870056497174,166.676040187293,18.989158247852448,18.989158247852448,195.94226596926552
485.36723163841805,167.4737303828755,18.864477843606842,18.86447784360684,196.2499451196154
484.74576271186436,165.74608645342582,18.916374310199192,18.916374310199192,196.55758993127301
484.1242937853107,164.96438762203138,18.520681636313654,18.52068163631365,196.83921417741897
483.50282485875704,166.532915231479,19.58895293118847,19.588952931188466,194.23787159808376
482.8813559322034,166.36817678416458,18.894072571609343,18.894072571609343,195.6044702088447
482.2598870056497,166.40066323044016,18.543185241114404,18.543185241114404,196.6208511329434
481.638418079096,166.0566626777622,18.742947781522457,18.742947781522457,197.2933885990192
481.01694915254234,166.91975383288803,19.017753588192353,19.017753588192353,197.9620622774617
480.39548022598865,166.7174766302002,19.213447365867026,19.21344736586703,196.91223610939988
479.774011299435,166.03334061214247,19.368403480454244,19.368403480454244,196.9763450823119
479.1525423728814,164.59143851959752,19.463419664758334,19.463419664758337,197.65145157697893
478.5310734463277,163.62207065675054,19.309749968318766,19.309749968318766,196.72059838162477
477.909604519774,166.35919140669262,18.895572764150273,18.895572764150277,195.62597052777198
477.2881355932203,165.1201926778267,20.263728231563416,20.26372823156342,197.43897357456981
476.66666666666663,164.2932160242296,19.089528730271883,19.089528730271883,198.17710515104858
476.04519774011294,164.3515642648383,19.498248037105267,19.498248037105267,196.01956065094083
475.4237288135593,166.43809128115836,19.127822681925156,19.127822681925156,196.10852053404065
474.8022598870057,166.4109882920393,18.289087647201352,18.289087647201352,197.00635280586937
474.180790960452,166.8197710498147,19.16618378145034,19.166183781450343,196.68543676612842
473.5593220338983,166.08636223798237,18.802980835269537,18.802980835269537,197.48389685385294
472.9378531073446,165.7666041592343,18.797369991469157,18.79736999146916,196.78133939885697
472.3163841807909,163.59306487841948,19.23342810494968,19.23342810494968,195.65906942557825
471.6949152542373,164.36094502958423,18.961234401687243,18.961234401687243,198.04363976345726
471.0734463276836,166.4159113996257,18.54077632696482,18.540776326964824,199.97820228295456
470.45197740112997,166.13616292971568,19.547080644390952,19.547080644390952,197.46741470951915
469.8305084745763,165.26539253036415,20.086296939052033,20.086296939052033,199.30617455558203
469.2090395480226,166.1332942522889,19.632664834441822,19.632664834441822,198.62778330486358
468.5875706214689,166.25285562001588,18.989520556083022,18.98952055608302,199.232317966481
467.9661016949152,165.72101000531686,18.380987560183698,18.380987560183698,197.81471262538318
467.3446327683616,164.95108902634962,19.319524131066714,19.31952413106672,199.88223593079792
466.7231638418079,165.4839944577551,19.285844859683444,19.285844859683444,198.8426485009662
466.10169491525426,165.79533606780728,19.643623469189446,19.643623469189446,198.48059754198317
465.48022598870057,166.20950375317997,19.557553935670942,19.557553935670942,200.44183530464002
464.8587570621469,165.40642164253183,18.738224663639556,18.738224663639556,199.40800085788456
464.2372881355932,166.30341639868618,19.181821887707773,19.181821887707773,201.89417213078056
463.6158192090395,166.019620131292,18.987340627693072,18.987340627693065,200.54859129382103
462.99435028248587,166.41345178395136,18.691273094259067,18.691273094259063,200.55640967004112
462.3728813559322,164.86122770471607,19.287437816223854,19.287437816223846,200.54609814741212
461.75141242937855,164.61604955092326,18.38470809787347,18.38470809787347,200.115031039692
461.12994350282486,166.67459738676757,18.474779802573252,18.474779802573256,201.28485022883322
460.50847457627117,165.69208609152363,18.624369131781823,18.62436913178182,201.2951642769844
459.8870056497175,165.86111475564954,19.426389031832656,19.426389031832663,199.69159417811935
459.2655367231638,164.07875124191006,19.141160894771314,19.141160894771314,201.20287065943177
458.64406779661016,165.5341192866167,19.046161901335534,19.046161901335537,202.18296382549974
458.02259887005647,164.25151928325647,19.2802950234881,19.280295023488097,205.0458917615375
457.40112994350284,163.5779046591371,19.329988015308047,19.329988015308047,205.58262003790801
456.77966101694915,164.1941833589872,18.789973904728008,18.789973904728015,205.06694533969198
456.15819209039546,164.49776848458063,18.64146719785692,18.64146719785692,206.51296643377898
455.53672316384177,164.30259343001575,19.30584467580911,19.305844675809112,206.21539981861284
454.9152542372881,164.77663255956034,19.148230201774098,19.1482302017741,207.8918179409294
454.29378531073445,164.87598683091235,18.993106865767967,18.993106865767967,206.78552883720522
453.6723163841808,163.89369857687586,18.699087213135826,18.69908721313583,207.15191630792143
453.0508474576271,165.43835686775225,19.131240627847625,19.131240627847628,206.50219157199635
452.42937853107344,164.28364281930192,19.335793416285707,19.335793416285718,207.33271306238115
451.80790960451975,164.19575698280656,18.359356073228312,18.359356073228305,207.13482821049502
451.18644067796606,165.33830215753764,18.880905109568715,18.880905109568715,207.28614052212794
450.5649717514124,164.6423438753752,18.714440861474557,18.714440861474557,207.69523554844076
449.94350282485874,164.53775561476317,18.553217697083177,18.553217697083177,207.09735553000195
449.3220338983051,163.24067856166232,19.53951627638872,19.53951627638872,207.51753589357168
448.7005649717514,163.69739754222158,19.35572872607698,19.35572872607698,205.8282520679033
448.07909604519773,164.5725635263754,19.772476797821323,19.772476797821326,205.32094676916554
447.45762711864404,162.20581752732227,18.770664061641387,18.770664061641387,207.07982219598776
446.83615819209035,162.5173184590641,18.817208066145387,18.81720806614538,206.2606995000653
446.2146892655367,162.44027153602207,19.684264260757416,19.68426426075742,205.78749349929333
445.59322033898303,162.12063400607477,19.72165785133908,19.721657851339078,205.18609925131804
444.9717514124294,162.9479917399087,19.15679693037344,19.15679693037344,207.4123547186104
444.3502824858757,162.52947148782278,19.66250211800371,19.662502118003708,206.17888771925283
443.728813559322,161.9739651336254,19.627579670277296,19.62757967027729,208.925118474224
443.10734463276833,163.21926604922552,19.45144669827058,19.45144669827058,206.1333530733716
442.48587570621464,162.5636462197491,20.273779398595185,20.273779398595185,207.8693165335004
441.864406779661,163.39538678036038,19.581178047468853,19.581178047468853,208.01160739179022
441.2429378531073,161.62710512636664,19.654836070620732,19.65483607062073,208.20404621609336
440.6214689265537,162.06253229134447,19.2594496045326,19.2594496045326,208.9119182226627
440.0,163.29909720592366,18.82267921842023,18.82267921842023,209.905281870462
439.3785310734463,163.70219226135433,19.463581285632504,19.463581285632507,206.96122379891915
438.7570621468926,162.57813810922192,18.972335311781023,18.97233531178102,209.6161939605743
438.13559322033893,162.62952514452465,19.38469719915579,19.384697199155795,209.23382570382523
437.5141242937853,162.4930632000736,19.446551717624708,19.4465517176247,209.15379467579393
436.8926553672316,163.01624924336866,19.038725546911465,19.038725546911465,208.70527355768365
436.271186440678,163.69889319582884,19.055854616091167,19.055854616091164,207.84710648248077
435.6497175141243,163.7385078366239,19.034614388292997,19.034614388292997,209.36207302589605
435.0282485875706,163.2576092667551,19.198884073862022,19.198884073862022,210.42702036662905
434.4067796610169,162.46326492516673,19.13204521955589,19.13204521955589,211.61279220762367
433.7853107344632,162.75020015552695,18.633294146249032,18.633294146249032,210.9738901593691
433.1638418079096,163.29536741478827,18.81266347708362,18.81266347708362,210.5259699935002
432.5423728813559,164.3877867708008,19.028649870896796,19.028649870896807,210.55238760603342
431.92090395480227,161.55387805786467,18.78373295695309,18.783732956953102,209.5768953698463
431.2994350282486,161.07720632211712,19.076443964673143,19.076443964673143,210.55595901977506
430.6779661016949,161.49721190456438,19.053758793777927,19.053758793777934,211.3061536592664
430.0564971751412,161.76742519481138,19.418253605720913,19.418253605720913,209.92476503856085
429.4350282485875,161.6396839885277,18.672260255609157,18.672260255609157,211.3692496926855
428.8135593220339,162.40119116957746,18.74817846809195,18.74817846809195,210.49742132636985
428.19209039548025,162.48760033217053,18.976976869732308,18.976976869732308,209.98435089295302
427.57062146892656,162.16727093753437,19.465356909538485,19.465356909538485,211.73802211524963
426.9491525423729,161.7649723618303,19.39919953991123,19.399199539911223,211.7596841534488
426.3276836158192,161.6422961857373,19.43007054424085,19.43007054424085,213.3645065845491
425.7062146892655,161.62061728704492,18.682804964288902,18.682804964288902,211.3983950065674
425.0847457627118,162.1637995290851,19.614956638685314,19.61495663868532,209.9921691050984
424.4632768361582,162.8104235287157,19.451553937324782,19.451553937324775,211.68701718837855
423.84180790960454,160.90470045927609,19.021195879688847,19.021195879688847,211.92189274490718
423.22033898305085,161.3916845114203,19.485564110291815,19.485564110291822,212.70678034481676
422.59887005649716,161.97201734274987,18.526835350243033,18.526835350243033,214.23696157832876
421.9774011299435,160.75298021315646,18.499212974014572,18.499212974014572,213.96598656572664
421.3559322033898,162.06073383034285,18.337175061889436,18.33717506188944,213.78369385762593
420.73446327683615,161.97853318074385,18.55659321195794,18.556593211957946,211.76538093773277
420.11299435028246,161.45416514689245,19.013983200762762,19.01398320076277,213.93287781261682
419.49152542372883,161.54294881565568,19.480273886170643,19.480273886170643,213.2922972098411
418.87005649717514,162.0847448044719,18.46255468099319,18.46255468099319,213.9329246400885
418.24858757062145,161.21572474916363,18.61107958950916,18.61107958950916,213.87949808013266
417.62711864406776,161.1632530602602,19.763477917218687,19.763477917218683,212.01452078039577
417.0056497175141,161.00807112686397,18.882173254425833,18.88217325442583,212.9660991372382
416.38418079096044,161.24314531974983,19.171924314696692,19.171924314696696,212.44096110295095
415.76271186440675,160.86994731299396,19.118728732045792,19.1187287320458,212.78444275972865
415.1412429378531,161.06654142552938,18.850295476797733,18.85029547679774,212.99595342106977
414.51977401129943,161.42032076966163,19.26060977701288,19.260609777012885,211.83737770166186
413.89830508474574,160.84154764988327,18.591994130560945,18.59199413056094,214.90611680503685
413.27683615819205,161.30546885169983,18.810962572419193,18.810962572419193,212.63988454254263
412.65536723163837,160.62901338876435,19.199201304131904,19.1992013041319,212.94045915045757
412.03389830508473,162.248434155083,19.138137990853416,19.13813799085342,213.4713179786185
411.41242937853104,161.24310809808625,18.752952371866495,18.752952371866503,214.43096630651704
410.7909604519774,161.64327204837141,19.09043105770872,19.090431057708713,214.80224038881167
410.1694915254237,162.7170329197299,18.47962664790191,18.47962664790191,213.3535512207411
409.54802259887003,161.8164235437722,18.59180519139598,18.59180519139598,214.8476792172113
408.92655367231635,161.90500407029572,18.358897560333507,18.358897560333507,213.70871362979213
408.30508474576266,161.8523733075725,18.856269508438793,18.856269508438793,213.96322422714312
407.683615819209,161.38540329557506,19.122201731724637,19.122201731724633,215.1840931106603
407.06214689265533,161.2700837290428,18.412106828904957,18.412106828904957,213.985609352587
406.4406779661017,160.8561702351283,18.747787044342747,18.74778704434275,214.49997772298354
405.819209039548,161.87867753599454,18.40540719511138,18.405407195111376,214.58703576459803
405.1977401129943,160.79139788907338,19.095441232269838,19.095441232269838,215.42246138432134
404.57627118644064,160.84457957721972,18.820215719977252,18.820215719977252,215.75972145735264
403.954802259887,160.7168548823666,18.928144835065154,18.928144835065158,215.5849498062353
403.3333333333333,161.3981969069645,19.21071043279461,19.21071043279461,215.97866970662474
402.7118644067796,161.41445333420538,18.653854575011312,18.653854575011312,216.90122439528207
402.090395480226,160.9915278683245,18.41551803407875,18.41551803407875,217.08622775524734
401.4689265536723,161.09204048494962,19.374458550027306,19.374458550027313,215.66106942556362
400.8474576271186,160.4274726037844,18.988461963706264,18.98846196370626,216.97992324478957
400.2259887005649,159.55924662961255,19.652264440778247,19.652264440778243,216.67215625101792
399.6045197740113,160.54859463569215,19.542258470975796,19.54225847097579,216.18123886290815
398.9830508474576,159.58355399983762,18.93471889919192,18.93471889919192,217.32366324049153
398.3615819209039,160.00092855001446,19.343286895396158,19.343286895396158,217.59860829880031
397.7401129943503,161.20043988586337,18.200111316454606,18.20011131645461,217.59081564068885
397.1186440677966,159.7829590234637,19.361511557185423,19.36151155718542,217.43477917853468
396.4971751412429,161.44214354628807,18.848247015536998,18.848247015536995,217.721008645538
395.8757062146893,159.94392895948477,19.112910669351766,19.11291066935177,216.82682485227477
395.2542372881356,159.8000350369973,19.363669817688766,19.363669817688766,216.62226457225154
394.6327683615819,158.80447924923982,19.408142358273647,19.408142358273647,218.08568295709003
394.0112994350282,159.92632323205277,19.186569290145606,19.186569290145606,217.7862741345221
393.3898305084746,159.28130618677736,19.118089383895143,19.118089383895143,218.2560676810866
392.7683615819209,159.046237614218,19.05211434743363,19.05211434743363,219.17062199051296
392.1468926553672,160.20678194032448,18.958614762807958,18.95861476280796,216.93652390859503
391.52542372881356,160.29705300907443,19.02828349359199,19.02828349359199,217.78883242701926
390.9039548022599,159.74006070531178,19.477318860728996,19.477318860728996,218.37453418560565
390.2824858757062,160.12136642758665,19.548621203767695,19.548621203767695,219.15019860631185
389.6610169491525,160.06000941722897,19.27142535477312,19.27142535477312,216.62780019114737
389.03954802259886,159.42299539368753,19.533798645760182,19.53379864576018,217.5751705845103
388.4180790960452,159.41169883290564,19.59739886139957,19.597398861399565,217.6029974511604
387.7966101694915,159.52003162758825,19.31230461910873,19.31230461910873,218.42864826222942
387.17514124293785,159.57523472801046,18.95308072855245,18.953080728552443,218.95664141627898
386.55367231638417,158.33041013614897,19.990193317117104,19.9901933171171,220.1359273049503
385.9322033898305,159.2145129198593,19.005342150382834,19.005342150382834,219.33294704811297
385.3107344632768,159.77235949144404,19.04625750514081,19.046257505140808,219.24631898106912
384.68926553672316,159.00851997000632,18.543105984762708,18.543105984762708,219.14141347318795
384.06779661016947,158.68043766785038,19.50887353076947,19.50887353076947,220.44374688489387
383.4463276836158,158.2321940534383,18.955592531500447,18.955592531500447,220.40282659490174
382.82485875706215,157.70519008803706,20.03123206128145,20.03123206128145,218.91369860765462
382.20338983050846,158.4228340096637,18.99780152160144,18.99780152160143,218.31643773040457
381.58192090395477,158.53489146397817,19.552281720333717,19.552281720333717,221.60756903217987
380.96045197740114,158.06248912593762,19.687997100362065,19.687997100362065,220.84145055076365
380.33898305084745,158.75410799396744,19.54566070045735,19.545660700457358,219.46877729904537
379.71751412429376,159.43774957757952,19.58267060910185,19.58267060910186,220.1212353999107
379.09604519774007,158.84761241254566,19.623952913211824,19.623952913211827,220.11482083961707
378.47457627118644,158.91016746677104,19.54434775521696,19.544347755216958,220.34724250840824
377.85310734463275,158.9644522068423,18.519473890125163,18.519473890125163,221.26375077583594
377.23163841807906,159.709299565727,18.858212866331204,18.85821286633121,222.052541736141
376.6101694915254,159.75661542051793,18.710862422563373,18.710862422563373,221.3597116678484
375.98870056497174,158.23572380484015,19.028311263136047,19.028311263136047,221.47989628746805
375.36723163841805,158.30543854883692,19.105023852405584,19.105023852405584,221.55537643561308
374.74576271186436,159.55690616199303,19.267263840312303,19.267263840312303,222.04274831435976
374.1242937853107,159.26793368698358,19.34571118084861,19.34571118084861,220.83083013869384
373.50282485875704,158.5707720595904,19.35276281185714,19.352762811857147,221.3444146614008
372.88135593220335,157.95960881250213,19.060845616808113,19.060845616808113,223.12756408655093
372.2598870056497,158.47905544978096,19.41364857776874,19.41364857776874,222.861069583209
371.638418079096,158.42376349968643,18.907231155934415,18.90723115593442,222.20087107068997
371.01694915254234,157.8855248266114,18.80100016814889,18.80100016814889,222.90743325786542
370.3954802259887,157.766665054025,19.10725468611983,19.10725468611983,222.21786992754835
369.774011299435,158.50796638895542,18.79650924863526,18.796509248635264,222.0246139205376
369.1525423728813,158.90983174522788,19.213906279210843,19.213906279210843,222.23545676968362
368.53107344632764,158.50696874386466,19.149329410819067,19.149329410819064,223.45624504775535
367.909604519774,158.45977559849737,19.39493981936755,19.394939819367558,223.19913441498534
367.2881355932203,158.8443018851352,19.19244751113492,19.19244751113492,222.0338457899657
366.66666666666663,157.77973304135068,19.27588767125756,19.275887671257557,223.78645667333276
366.045197740113,159.69055287845867,19.81315231417533,19.813152314175326,223.77738684311697
365.4237288135593,159.1922864943509,19.02280816174144,19.022808161741438,223.6952687480531
364.8022598870056,158.5956034067082,18.907456494966755,18.90745649496676,224.17039082462264
364.18079096045193,159.21332299037388,19.66411873600605,19.664118736006042,224.42434686283173
363.5593220338983,158.41224407677944,18.884147045229575,18.884147045229575,223.37060388698666
362.9378531073446,158.98187184250233,18.99681861320136,18.996818613201352,224.83945396544195
362.3163841807909,158.7944664177052,18.98918694806422,18.98918694806422,225.70357698536796
361.6949152542373,158.73144391956384,18.77727269849287,18.777272698492872,224.76907086095918
361.0734463276836,158.3151102305174,19.24560072850864,19.24560072850864,224.417586476302
360.4519774011299,158.1586894522235,19.37853707341929,19.37853707341929,228.39526731694093
359.8305084745763,158.73641958729706,19.20666445988107,19.20666445988107,228.30426889971633
359.2090395480226,158.1422359494166,19.126633508948697,19.126633508948693,227.6808542347137
358.5875706214689,158.1086232046378,19.061082124987806,19.061082124987802,229.9768893803234
357.9661016949152,158.06498634299484,18.6379866640261,18.63798666402609,228.35552183930815
357.3446327683616,158.47308988874417,19.154726962832843,19.154726962832846,227.80861953920734
356.7231638418079,157.32726642878788,19.288888007837443,19.28888800783744,229.8698558602418
356.1016949152542,156.82843183482575,19.497289725770226,19.497289725770226,230.16633333297162
355.48022598870057,157.67995790018716,20.142244202251188,20.142244202251188,230.49826369928616
354.8587570621469,156.88555200641105,19.62957973773077,19.629579737730772,230.0185874986003
354.2372881355932,156.65184943415179,18.998869506028388,18.99886950602839,229.8886210502855
353.6158192090395,157.39182356334987,19.100667629275463,19.10066762927546,229.54443511015842
352.99435028248587,158.2754894386297,19.194466529086284,19.194466529086284,229.9663399588226
352.3728813559322,157.66742068177112,19.55929447442918,19.559294474429176,229.9209598012579
351.7514124293785,157.87246397837987,19.431045438315,19.431045438314996,230.00005984458818
351.12994350282486,157.68375299623796,19.34166708183527,19.341667081835272,230.45876178168245
350.50847457627117,157.10542618049593,19.356449878304012,19.356449878304005,230.5387132273795
349.8870056497175,157.71731466615597,19.054817802207882,19.05481780220788,230.32839826698597
349.2655367231638,157.75797227241992,19.108086907053806,19.10808690705381,230.43703274756058
348.64406779661016,157.24339652854636,19.473274836378284,19.473274836378284,229.99714419581193
348.02259887005647,157.78532837575938,19.42600190557452,19.42600190557452,230.07419847260613
347.4011299435028,156.57068375610737,19.08149703707973,19.081497037079732,230.29003315529644
346.77966101694915,157.2095720428094,19.302122082379146,19.302122082379146,231.53611003871364
346.15819209039546,157.2783048727702,19.510362177735935,19.51036217773593,231.84250040320018
345.53672316384177,157.66279358656504,19.18458181166772,19.18458181166772,230.82497128044946
344.91525423728814,157.49535284114458,19.35919140959037,19.359191409590366,231.4639948993015
344.29378531073445,157.23547249148965,19.738255622877507,19.738255622877507,232.0486885422218
343.67231638418076,157.5648674246726,19.501433570651546,19.501433570651546,231.47934072664216
343.05084745762707,157.91787885010442,19.11109117667481,19.11109117667481,232.3445945991956
342.42937853107344,158.0515580381727,18.94815626554299,18.94815626554299,231.21025151893053
341.80790960451975,158.22162561256775,19.657823377316056,19.657823377316056,232.87201163169718
341.18644067796606,157.4049531245931,19.367831869232234,19.367831869232237,231.12044874587434
340.56497175141243,157.60257350960563,19.851515115439653,19.851515115439653,231.57058495722507
339.94350282485874,157.26611611797819,19.99254101742646,19.99254101742646,231.92978466984815
339.32203389830505,157.5881356787021,19.672934368252303,19.6729343682523,232.06128242362544
338.70056497175136,157.9693657538871,19.291554137577183,19.291554137577183,232.34855147181702
338.07909604519773,157.60188819126094,19.017792062248162,19.017792062248162,232.04753743328493
337.45762711864404,157.71336828465158,19.61087681287213,19.61087681287213,233.19407239384617
336.83615819209035,157.1162495215198,19.206054569713423,19.20605456971343,233.55343703788927
336.2146892655367,157.40141188650747,19.241877074590356,19.241877074590356,233.00242322841493
335.59322033898303,157.32455331098262,18.900744434361012,18.900744434361012,234.4005596473097
334.97175141242934,157.42502975804697,19.28428719390203,19.284287193902035,233.84853054933407
334.3502824858757,157.48998752568656,19.25366423989694,19.253664239896935,234.16724931860782
333.728813559322,157.06622931588774,19.442356813259863,19.442356813259867,233.76656430919274
333.10734463276833,157.36951446823707,18.872078879401748,18.872078879401748,233.86490718537968
332.48587570621464,158.43541566210342,19.504749281035487,19.504749281035487,235.02557494017324
331.864406779661,157.93021769823284,19.352574545918795,19.35257454591879,233.5135465727823
331.2429378531073,157.67361081029787,19.00191805638932,19.00191805638933,234.617268256897
330.62146892655363,158.02957287973888,19.280232291227566,19.280232291227566,234.22651812481973
330.0,156.8616174935847,19.116418257565822,19.11641825756582,234.06525261032388
329.3785310734463,159.89334718011665,18.76768222141128,18.76768222141129,234.49421237485603
328.7570621468926,158.03069250668895,19.113909537299627,19.113909537299627,234.5798470263888
328.13559322033893,158.19485189352253,19.131375128817574,19.131375128817577,234.2319501084615
327.5141242937853,157.67895949231635,19.009403262754727,19.009403262754724,234.6550127536523
326.8926553672316,157.52747290590688,18.88168528221041,18.881685282210412,234.07159928433117
326.2711864406779,156.45826637636026,18.941379560854976,18.941379560854976,236.3317104682999
325.6497175141243,157.7947805721338,18.845889069158805,18.845889069158808,235.2722658245932
325.0282485875706,158.9241794130212,19.346524833724636,19.346524833724636,234.47012685749272
324.4067796610169,158.28466820372645,18.654716842630016,18.654716842630016,235.7367897350696
323.7853107344632,157.63382799678698,18.181134315262504,18.181134315262508,235.48077700975824
323.1638418079096,159.4055936494473,18.440628829353724,18.440628829353727,235.56639170050136
322.5423728813559,157.84711789328512,18.544031124566715,18.544031124566715,235.50475198845567
321.9209039548022,160.62212634171323,19.978219175558348,19.978219175558355,235.4904360701989
321.2994350282486,160.37067823581296,19.98844244317928,19.98844244317928,237.29285963322792
320.6779661016949,160.96200011516123,18.667848920958882,18.667848920958882,237.50014059310328
320.0564971751412,161.71721381781114,18.503949084102775,18.503949084102782,236.03342608920732
319.43502824858757,160.58533955359897,19.826715221898844,19.826715221898844,236.68471249256487
318.8135593220339,160.0443282429313,19.62691374992942,19.62691374992942,237.96528967658438
318.1920903954802,160.05185983879093,19.78642837653163,19.786428376531635,236.26139208472324
317.5706214689265,161.19399991105246,19.38785430157675,19.387854301576745,236.88409185360723
316.9491525423729,159.77240318208783,19.44639232741329,19.44639232741329,237.64953363537774
316.3276836158192,160.10920911903852,19.789750050291847,19.78975005029184,237.11944076640333
315.7062146892655,157.8226805231085,18.79664339643784,18.79664339643784,236.11619713707097
315.08474576271186,157.91193961727996,19.073679345257904,19.07367934525791,236.35822186416854
314.4632768361582,157.74157547552875,18.87556117956875,18.875561179568752,236.61033370787703
313.8418079096045,157.57136707384043,18.820779428153017,18.820779428153013,236.1381264044844
313.2203389830508,156.78430613178952,18.832113099040964,18.83211309904097,236.06713312442844
312.59887005649716,156.9253827092484,19.094830190921844,19.094830190921844,235.922118379458
311.9774011299435,158.67720083457615,19.422926743192313,19.422926743192317,236.64106221871415
311.3559322033898,155.8809656919012,19.400242793493153,19.400242793493153,237.41815416222119
310.73446327683615,158.34129884222259,19.15456339931866,19.15456339931866,236.74357417241626
310.11299435028246,158.49495436925974,19.02819577479496,19.02819577479496,235.8643160738748
309.4915254237288,157.9941840350554,18.957663362055897,18.957663362055897,237.2839043800362
308.87005649717514,158.48944872325296,19.349375328855306,19.349375328855302,236.68237241954972
308.24858757062145,157.97792876495583,18.563829955988755,18.56382995598876,236.66036783702717
307.62711864406776,157.2718204737301,18.93857576518346,18.93857576518346,237.8621008586724
307.0056497175141,158.9341703101774,19.51769450790646,19.51769450790646,238.76756238581382
306.38418079096044,157.65341710095163,19.021165571848602,19.021165571848606,238.5903757408591
305.76271186440675,157.95003811596044,19.059951704917832,19.059951704917832,238.26090541786377
305.14124293785306,158.63347784311392,18.518680087542585,18.518680087542585,237.47009152480493
304.51977401129943,157.52246207302312,18.466494984913528,18.466494984913524,238.6042109698462
303.89830508474574,157.78886003483913,18.94215369702756,18.94215369702756,236.74272990724884
303.27683615819205,158.45574730168104,18.564058067553198,18.564058067553198,237.9322824859574
302.65536723163837,158.48411328335516,18.507615653125946,18.507615653125946,238.86770287102627
302.03389830508473,158.6747226001,18.178919530642517,18.17891953064251,237.76174494017823
301.41242937853104,159.66378732343276,16.173570277059156,16.173570277059156,238.54177731676174
300.79096045197736,161.40703404567788,19.224140634485394,19.224140634485384,238.17097344754228
300.1694915254237,162.3396504355647,19.203585904618922,19.203585904618922,239.22953022804444
299.54802259887003,162.168201125789,18.39510539610048,18.39510539610048,239.7101837214453
298.92655367231635,163.12336678864665,18.795050510425966,18.795050510425966,239.16584051344827
298.3050847457627,162.68934784783963,18.82367863532105,18.823678635321052,238.4904114718921
297.683615819209,160.94707496944497,19.131709647461708,19.1317096474617,238.16938406400837
297.06214689265533,160.32945735570547,19.32163539705678,19.32163539705678,239.28929643114668
296.44067796610165,161.02130396764937,19.1653844573387,19.1653844573387,239.04331238017065
295.819209039548,159.9446641888489,19.52289256948448,19.52289256948448,239.01507910961607
295.1977401129943,160.27597121666201,20.104914415757687,20.104914415757687,239.12176006099617
294.57627118644064,157.4054576370329,19.236088649991988,19.236088649991988,239.08532980724928
293.954802259887,158.1961711526462,18.726395977121545,18.72639597712155,238.45994833101716
293.3333333333333,157.6322615560946,18.50103989000329,18.501039890003284,238.28746937785624
292.7118644067796,158.09263774689543,19.17463932720735,19.17463932720734,236.92884380983773
292.09039548022594,157.90234372955857,18.556534009900385,18.556534009900385,239.10308586068675
291.4689265536723,158.47966383737446,18.850356945469223,18.850356945469226,238.1742068794051
290.8474576271186,158.10094335916435,19.162246906636994,19.16224690663699,237.97874228296928
290.2259887005649,158.7816691567761,18.67370111689816,18.673701116898165,238.38283411669337
289.6045197740113,158.77040100382877,19.096428132622677,19.096428132622673,238.0579684658416
288.9830508474576,158.61678147961405,19.108797670444297,19.108797670444297,238.32465752259537
288.3615819209039,158.20394734962397,18.82791184385127,18.827911843851265,238.94779336834165
287.7401129943502,158.18616991769736,18.822507892765294,18.822507892765298,238.50034697916846
287.1186440677966,159.3992551363491,19.12039610436735,19.12039610436735,239.2044692625151
286.4971751412429,158.40206787642407,18.645863298728212,18.645863298728212,239.2153100866931
285.8757062146892,159.1220274247445,18.229921766312103,18.229921766312106,239.46603959992638
285.2542372881356,159.64281088132495,17.87113054914667,17.87113054914667,238.14862087767847
284.6327683615819,158.6480343971935,18.38369718890014,18.38369718890014,238.8582821696801
284.0112994350282,159.363523803643,18.453628103214154,18.453628103214147,238.6397442988944
283.3898305084746,159.67584825613022,18.414401570601967,18.414401570601967,237.6799191716055
282.7683615819209,158.66618479037902,18.238252953798668,18.238252953798668,239.30627129148323
282.1468926553672,160.13413601952928,18.085426217471877,18.085426217471873,238.15699749477764
281.5254237288135,157.84560986509067,18.67916956825788,18.679169568257883,238.65799428000483
280.9039548022599,158.75086297443616,18.044991606700016,18.044991606700016,238.23426177944458
280.2824858757062,158.7193755334467,18.306335344921926,18.306335344921926,238.40243615230327
279.6610169491525,162.1517912591544,18.65053203833043,18.650532038330432,238.23630091080798
279.03954802259886,163.47640293690395,17.916112938912107,17.916112938912107,238.2217887794224
278.4180790960452,159.64086964694772,18.95527859599945,18.95527859599945,238.95477657302217
277.7966101694915,159.61337394936817,18.078968102270625,18.078968102270625,239.12724559279397
277.1751412429378,160.6281663640835,18.31089890518553,18.31089890518554,238.51391926601593
276.55367231638417,160.22693043747196,18.17310852598161,18.17310852598161,239.2019686758212
275.9322033898305,159.37376007084868,18.353080709857775,18.35308070985777,239.28381958148555
275.3107344632768,159.4240940980517,18.035895804280866,18.03589580428088,237.64814638499874
274.68926553672316,159.28914316940327,18.202744853102143,18.202744853102146,238.21660732695605
274.06779661016947,160.59742194333228,18.289385552893055,18.28938555289306,237.65733878712746
273.4463276836158,160.78719243158355,18.468200597528636,18.46820059752864,238.66735807863842
272.82485875706215,159.5602794776701,17.975872645389078,17.97587264538908,238.42636436972958
272.20338983050846,159.2144077803149,18.321646922812814,18.321646922812814,239.13231120597047
271.58192090395477,159.4686945767178,18.10408426485689,18.10408426485689,239.12913633127286
270.9604519774011,160.56978074092015,18.416493315660478,18.416493315660485,239.85331582740523
270.33898305084745,160.28638605379868,17.633415987380655,17.633415987380655,238.7036378022243
269.71751412429376,160.15902370227627,17.646400773881698,17.64640077388169,239.01243343297088
269.09604519774007,160.57774121415494,17.717316346559688,17.71731634655969,238.18800960118986
268.47457627118644,159.38207835207544,18.085424479836757,18.085424479836757,239.63646646549952
267.85310734463275,160.71924479494436,18.125301941916682,18.12530194191669,238.5188023083801
267.23163841807906,160.82246746364564,18.2202571854409,18.2202571854409,238.5264796028391
266.61016949152537,160.77150607150543,17.834606387161756,17.83460638716176,237.87970971191766
265.98870056497174,161.7912400840567,17.668826617960594,17.668826617960594,238.32201448788075
265.36723163841805,161.0611216928492,17.70279473433703,17.70279473433703,239.00836074356968
264.74576271186436,160.80863063611105,17.900601604797938,17.90060160479794,238.4245386582214
264.1242937853107,161.7669031909143,17.585797155398843,17.585797155398843,238.1443388591565
263.50282485875704,161.84640653810632,17.631569268418566,17.631569268418566,239.66164686526415
262.88135593220335,161.27598624723854,18.17819196915897,18.178191969158963,239.00814943501658
262.2598870056497,161.98032189301583,17.47572090271203,17.475720902712027,237.8322935194714
261.638418079096,161.496538967429,17.58544647979233,17.58544647979233,238.6944932961946
261.01694915254234,161.61968703207458,17.299051110261757,17.299051110261757,237.98453031437964
260.39548022598865,160.47633814894948,17.452794986291487,17.452794986291483,238.08034160083744
259.774011299435,159.77010545250684,17.875723033193992,17.87572303319399,238.13472273141286
259.1525423728813,161.86830453161713,17.471814314296477,17.47181431429648,236.89326061187924
258.53107344632764,160.19661958023607,17.619321166980527,17.61932116698053,237.99321053106598
257.909604519774,161.3879398864082,17.938755950909492,17.93875595090948,237.88312780491992
257.2881355932203,160.04920495333766,18.53927040553275,18.539270405532754,242.114704773244
256.66666666666663,161.4424019756895,17.216713798093163,17.216713798093156,239.66183430576086
256.04519774011294,162.59915162065343,17.21084449875626,17.21084449875626,238.29881339060805
255.4237288135593,162.11329328179173,17.33808961381381,17.33808961381381,238.06240366621077
254.80225988700562,163.72792470869703,17.431241102672832,17.431241102672832,239.03858064274837
254.18079096045193,165.86322034905555,17.563704615463493,17.563704615463493,239.01305428809013
253.5593220338983,166.55286721705266,17.62525296848623,17.625252968486226,242.26993599157268
252.9378531073446,166.62727714913308,17.418429749319813,17.418429749319813,240.08279757843346
252.31638418079092,166.1416272955936,17.045923347291588,17.045923347291588,239.0166980317123
251.69491525423723,165.00344779298214,17.02625822533498,17.02625822533498,239.7833769287361
251.0734463276836,166.55956270900148,17.797480838777258,17.797480838777254,238.88913315669214
250.4519774011299,164.76877954791266,16.94117926240134,16.941179262401334,238.84533358567182
249.83050847457622,165.8202626522354,16.622250481675387,16.622250481675387,239.3621253319637
249.2090395480226,164.68588901896354,16.953577333835767,16.953577333835764,238.70196302346608
248.5875706214689,161.28775762934293,17.054932369945615,17.054932369945607,238.305515447158
247.9661016949152,162.6375622497955,17.225309421293186,17.22530942129319,237.26496191027405
247.34463276836158,162.5738731378072,17.053362961302188,17.053362961302188,237.1645035402561
246.7231638418079,161.97720289936115,17.490209664663436,17.490209664663436,237.3897926293026
246.1016949152542,161.5678539551564,17.548857029736407,17.548857029736407,236.9595288132417
245.4802259887005,162.62463036353745,17.114383468128892,17.114383468128892,237.2629277147974
244.85875706214688,162.29962383087877,17.706683833923137,17.706683833923137,237.6636085651178
244.2372881355932,160.87769749668487,17.45543975104946,17.45543975104946,236.50597516174327
243.6158192090395,162.02604375653064,16.789388655626944,16.78938865562695,237.40879695884698
242.99435028248587,162.29722458844074,16.525311092725925,16.525311092725925,236.77354918977147
242.37288135593218,163.21571249183873,16.99618771536823,16.996187715368222,237.89532401086933
241.7514124293785,163.82385051410228,16.79351553954504,16.79351553954504,236.40145958970186
241.1299435028248,163.61867478356356,16.950192321363456,16.950192321363463,238.34524820190887
240.50847457627117,161.87690194836105,16.036971831335578,16.03697183133558,236.10865808671147
239.88700564971748,162.04032078673094,16.52777665232993,16.527776652329933,236.60106148305874
239.2655367231638,163.99209676429066,16.692259585726756,16.692259585726756,235.94202086947183
238.64406779661016,163.06522232691088,16.214008890928138,16.214008890928138,238.64298092500871
238.02259887005647,162.60383663396678,16.453696808059103,16.453696808059103,236.61058709467707
237.40112994350278,163.13323082204965,16.70725501977176,16.70725501977176,236.58248130748007
236.77966101694915,162.85301020286167,16.91364883902527,16.91364883902527,237.2931444149731
236.15819209039546,163.47116580789938,16.727173887003417,16.727173887003417,236.27250171636746
235.53672316384177,162.12431734647254,16.273895829725248,16.273895829725237,236.1667975087464
234.91525423728808,163.96429231062078,17.09258264446433,17.09258264446433,235.15776738895468
234.29378531073445,164.04067846844066,16.729807275742886,16.729807275742886,236.8017515803174
233.67231638418076,164.44057914627376,16.145698625346586,16.145698625346586,236.48266061348372
233.05084745762707,164.72323663151008,16.445164230008093,16.44516423000809,236.5623380148877
232.42937853107344,163.5923947520638,16.69043794175816,16.69043794175815,235.6913932724977
231.80790960451975,163.4529521574288,16.66432789945492,16.664327899454925,238.22711691508525
231.18644067796606,163.66878016166274,16.380335348468563,16.380335348468563,235.43627959389423
230.56497175141237,164.2961689583143,15.938157739375018,15.938157739375024,234.96348286767653
229.94350282485874,164.53210152496294,15.952818239021383,15.952818239021376,235.27606514358297
229.32203389830505,164.67397231290067,16.457726571519526,16.457726571519522,234.84640918625513
228.70056497175136,165.1281650957318,16.090519478328346,16.090519478328346,235.55675381662013
228.07909604519773,164.69526518973373,15.793271189806763,15.793271189806763,236.68687903534695
227.45762711864404,165.48427417527708,15.949984693675916,15.94998469367591,236.114723034126
226.83615819209035,165.01198095353107,15.964382878818286,15.964382878818286,235.6931386919736
226.21468926553666,166.2193787889526,15.924577730798859,15.92457773079886,235.14260567433632
225.59322033898303,164.00606974361241,16.418463448958597,16.418463448958594,236.30560164265046
224.97175141242934,167.0574082269302,16.353401466853402,16.353401466853402,234.64388948434197
224.35028248587565,166.43054011743115,15.93490099356982,15.934900993569821,235.27079110922372
223.72881355932202,165.71391692567875,16.021317037973713,16.02131703797371,236.60686171141083
223.10734463276833,166.9171733605907,15.851737749912063,15.851737749912058,235.6244361271871
222.48587570621464,168.27526286385526,15.960439516256312,15.960439516256312,235.7295055480961
221.864406779661,167.76093045463435,15.746234335981592,15.746234335981597,235.9326343226945
221.24293785310732,166.2377979264595,15.699811879368141,15.699811879368136,235.28393094272474
220.62146892655363,167.06988052881894,15.585093557049799,15.585093557049793,234.6087091107199
219.99999999999994,165.91893094771905,15.683315660298279,15.683315660298282,233.2225520607107
219.3785310734463,165.05865187773492,15.835752514829569,15.835752514829574,234.60662052350227
218.75706214689262,166.0142105885528,16.02358199862723,16.023581998627233,235.31865967502074
218.13559322033893,165.91726071938012,15.93455853671193,15.934558536711934,234.36540772566988
217.5141242937853,166.2234513131804,15.106329188025455,15.106329188025455,235.29035892370334
216.8926553672316,167.32466164935494,15.357071413894738,15.357071413894738,234.09462644118224
216.27118644067792,167.20042429696673,15.238645398502387,15.238645398502383,235.0707825428007
215.64971751412423,167.51636649255713,15.446226073403592,15.446226073403587,234.5879658023442
215.0282485875706,167.47682332428664,15.59219658254836,15.59219658254836,234.9519834947667
214.4067796610169,167.90914113420547,14.97475529217845,14.97475529217845,234.15826671455017
213.78531073446322,167.45217863829689,14.891568115657488,14.891568115657494,234.88403829671088
213.1638418079096,169.05475724885366,14.993382013438634,14.993382013438634,233.15871594252948
212.5423728813559,168.34398961733777,14.558398209429633,14.558398209429622,233.65115700622812
211.9209039548022,168.52626475117407,15.477456628422317,15.477456628422317,233.3084983291358
211.29943502824858,168.42820137942715,14.753356128337376,14.753356128337376,233.19555594724284
210.6779661016949,168.82921737452895,15.176094710045898,15.176094710045893,234.0946003475264
210.0564971751412,168.03897435095425,14.698013206154036,14.698013206154029,232.92509654589503
209.4350282485875,168.19441691667205,14.714036153421096,14.714036153421102,232.682887308935
208.81355932203388,168.45426973099788,14.51254328740422,14.51254328740422,232.999112735599
208.1920903954802,168.61142066748664,15.240283474696966,15.240283474696968,233.13088751487336
207.5706214689265,168.3714001306683,14.876396373376897,14.876396373376902,232.3899856654297
206.94915254237287,169.20191997870222,14.832312435058986,14.832312435058983,233.11203291598855
206.32768361581918,170.12310358131504,14.518791691664262,14.518791691664262,232.04143650633983
205.7062146892655,169.46003421704026,14.842121114521968,14.842121114521959,232.27488293989683
205.0847457627118,170.14902864860846,14.839369138210657,14.839369138210657,231.6660431375181
204.46327683615817,170.752386641611,15.208018769234338,15.208018769234338,232.74305658941748
203.84180790960448,169.7618692390409,14.638307281456955,14.638307281456955,230.95338451555915
203.2203389830508,169.83048361413415,14.80378279799983,14.80378279799983,231.88076885358436
202.59887005649716,171.25274661490442,14.343128885723793,14.343128885723798,231.8499952996719
201.97740112994347,172.05317265513656,13.910475567652357,13.910475567652357,233.81088319207944
201.35593220338978,176.78997342596233,14.509937092593807,14.509937092593804,234.24019652916738
200.73446327683615,175.95704087310855,14.436258947174908,14.436258947174908,234.13118281391553
200.11299435028246,175.22068858641134,14.295778659684201,14.295778659684201,233.82257867350748
199.49152542372877,176.0403508932213,13.916750975004515,13.916750975004515,234.22413254404788
198.87005649717509,176.48188070324017,14.196413538472637,14.196413538472637,234.39211820352304
198.24858757062145,177.36847585139185,11.167246111175995,11.167246111175992,236.8625120235507
197.62711864406776,176.00492972522161,14.19661636137074,14.196616361370738,233.94055108122154
197.00564971751407,176.0473292080157,13.561246858255767,13.561246858255771,233.80672953646354
196.38418079096044,176.2936324681628,13.561569896081481,13.561569896081483,233.9204744172167
195.76271186440675,176.16776501680116,13.757201345025468,13.757201345025468,234.18630649436994
195.14124293785306,176.61099121919335,14.264997117815657,14.26499711781566,233.0436971502453
194.51977401129938,176.69677247316017,14.294276924770633,14.294276924770633,233.1863989940053
193.89830508474574,176.45923339913028,14.444637413581269,14.444637413581274,234.17479062783966
193.27683615819205,177.43793659988083,13.640639532369532,13.640639532369526,233.7214554962765
192.65536723163837,177.52113450190902,13.769670833008103,13.769670833008107,233.04255135986966
192.03389830508473,177.39356520196364,14.203660080577416,14.203660080577414,232.3244070958381
191.41242937853104,177.56893259966532,13.787777699782593,13.787777699782591,233.72689541057383
190.79096045197736,178.32298676687495,13.724159799699194,13.724159799699194,232.4789333306028
190.16949152542367,177.66371767603192,13.693676284084482,13.693676284084486,233.50793861823547
189.54802259887003,177.26886740862753,13.68701130904164,13.68701130904164,232.85354486575497
188.92655367231635,174.6219598745913,14.011112027689855,14.011112027689858,232.14011014354676
188.30508474576266,174.61035767919896,13.567851535652752,13.567851535652752,230.712063418806
187.68361581920902,176.92748912470378,13.053832808562237,13.053832808562237,230.3375203627482
187.06214689265533,176.77511250574614,13.546079587836282,13.546079587836282,230.90417193437645
186.44067796610165,177.22746182168882,13.41632120422139,13.416321204221388,229.9508546295643
185.819209039548,178.5301083845686,13.309986203646991,13.309986203646986,230.92951050470876
185.19774011299432,177.71111041458062,13.792198445509216,13.79219844550921,230.12918573435167
184.57627118644064,176.2403258854068,13.15635956435237,13.15635956435237,230.31509744370504
183.95480225988695,177.9822916302557,13.199929292469461,13.199929292469461,231.33609460484752
183.33333333333331,177.96823880645658,13.315955845919316,13.315955845919316,229.86224219913123
182.71186440677963,177.7014814629113,13.29411412253348,13.29411412253348,230.33866765542695
182.09039548022594,177.49074351797665,13.095109875116549,13.095109875116549,230.50014859082833
181.4689265536723,178.51570208741393,12.328151191203045,12.328151191203045,231.9169689187267
180.84745762711862,177.89666777992252,12.833738171798823,12.833738171798823,230.4875002729477
180.22598870056493,178.36595850501848,12.545613528126164,12.545613528126168,230.55979362077983
179.60451977401124,178.01715510641407,13.173913540213006,13.173913540213007,229.57622977025687
178.9830508474576,175.98726262806935,13.489369400983891,13.489369400983895,227.77612716544078
178.36158192090392,176.5715775914857,12.969362318317412,12.969362318317414,229.0250540338312
177.74011299435023,175.91048007858296,12.96974526905988,12.969745269059876,229.3157129871966
177.1186440677966,176.336593051196,12.930023706783711,12.930023706783711,228.56579789455338
176.4971751412429,176.76338641829645,13.232844272387313,13.23284427238731,228.8231890394513
175.87570621468922,176.50148641051533,12.81221872012769,12.81221872012769,228.47763011243077
175.25423728813558,177.40745074834192,12.684776868894485,12.684776868894481,229.5668260830412
174.6327683615819,177.14142786922696,13.118737270438027,13.118737270438032,227.96659210038376
174.0112994350282,177.81691590427766,12.882012928392605,12.882012928392603,227.31880310077975
173.38983050847452,178.4227198443155,12.957007875343699,12.957007875343699,228.16068786654677
172.76836158192089,178.1878779293045,12.70170822845301,12.70170822845301,229.03528583802333
172.1468926553672,177.99548081268284,13.29129295407896,13.291292954078955,227.95171083174708
171.5254237288135,177.81421302085133,12.97988659095458,12.979886590954585,227.83088708045003
170.90395480225988,179.95569700765353,13.534592915486137,13.534592915486137,227.61235528282617
170.2824858757062,178.30853785946817,12.902980227708687,12.902980227708685,226.86152042984682
169.6610169491525,178.65073099728232,12.74923174216204,12.74923174216204,227.8404626789345
169.0395480225988,179.74628751340487,12.45584916837669,12.455849168376693,227.48673722261174
168.41807909604518,179.49534962611898,11.970469654175593,11.97046965417559,225.82911719980683
167.7966101694915,178.84203182746455,12.211270846187677,12.211270846187679,225.8054539149186
167.1751412429378,179.89518395859977,12.37203309940725,12.37203309940725,227.33919484469564
166.55367231638417,179.3218215350753,12.716692378559886,12.716692378559884,226.8148628392792
165.93220338983048,181.4849004792407,12.338722331843867,12.338722331843867,225.9611103528101
165.3107344632768,180.1356513245872,12.431218496020792,12.431218496020788,228.00010394098422
164.6892655367231,180.33660466994334,12.503942791693243,12.503942791693238,226.58500173152942
164.06779661016947,181.2468728490606,12.33407600291017,12.334076002910173,226.7837057434691
163.44632768361578,180.17222916708613,11.798480704921033,11.798480704921033,226.12633235114654
162.8248587570621,181.1055111463691,11.69753897830474,11.697538978304742,226.5650701101824
162.20338983050846,181.6526654705599,11.538255016953007,11.538255016953007,226.4707938051126
161.58192090395477,181.21644695099292,12.251844147389411,12.251844147389415,226.23575985615707
160.96045197740108,180.75232507566352,12.565132419314036,12.56513241931403,225.53583952889556
160.33898305084745,180.93907819929635,11.770303069769101,11.770303069769101,226.43322050574167
159.71751412429376,181.45863746326376,12.050174997051508,12.050174997051506,226.58223614876763
159.09604519774007,182.61148160451256,11.39115033831801,11.391150338318004,225.85697701970625
158.47457627118638,182.4220376166853,12.165686579025184,12.165686579025184,226.11906765675496
157.85310734463275,181.83376498811998,12.005522150879735,12.005522150879731,225.19555659400726
157.23163841807906,183.1341395279198,12.292507280184756,12.292507280184761,224.65741639970847
156.61016949152537,182.4456465833195,11.72320102349134,11.723201023491336,226.12013004526762
155.98870056497174,181.9734724562209,12.043265952230367,12.043265952230367,224.55884100078924
155.36723163841805,182.05712450077758,12.21223677295964,12.21223677295964,225.32053340313263
154.74576271186436,182.78691487708386,11.014697690263352,11.014697690263352,225.35977178861035
154.12429378531067,183.17002267379314,11.328202634581881,11.328202634581881,224.68832546399221
153.50282485875704,181.53475371855401,11.290324543243079,11.290324543243084,223.11353508037044
152.88135593220335,182.331320091928,11.672225666731896,11.672225666731892,225.78492284626878
152.25988700564966,182.7975528892758,11.124584987582463,11.124584987582468,224.0868129711655
151.63841807909603,182.29876307330488,11.02776832761532,11.027768327615318,224.7267578224911
151.01694915254234,182.70905306745138,11.097873211236264,11.09787321123626,223.1367926789357
150.39548022598865,183.23182690284946,10.903525394024628,10.903525394024628,224.3552284502227
149.77401129943502,183.821283036285,10.424261484478244,10.42426148447824,223.7388979049131
149.15254237288133,184.44299329432832,10.678215562379007,10.67821556237901,223.63524295765936
148.53107344632764,183.083407373381,10.858652513171549,10.858652513171545,222.81161186833125
147.909604519774,184.51645425642883,10.99404402709705,10.994044027097045,223.93580316491733
147.28813559322032,185.18280863041602,11.075027173073567,11.075027173073567,222.8747212399609
146.66666666666663,184.73105401328388,11.243604653851378,11.243604653851378,223.4905874634894
146.04519774011294,185.31094327919092,11.100793860018427,11.100793860018427,223.59503640429182
145.42372881355925,186.44464441439038,10.866267901831492,10.866267901831492,224.01631095564912
144.80225988700556,185.5474228592161,10.80150293042181,10.801502930421817,222.83267544015143
144.180790960452,186.12336424043883,10.788737835904035,10.788737835904035,222.21958814973098
143.5593220338983,185.2982835344875,10.531433212126945,10.53143321212695,224.91200358070614
142.9378531073446,186.03557974557845,10.990169141957466,10.990169141957464,223.76610297399196
142.31638418079092,186.40036570309047,10.756360945978377,10.75636094597838,222.81826470050393
141.69491525423723,186.5016775115716,10.409709772655418,10.409709772655418,223.46013084364327
141.07344632768354,187.52846333975012,9.914634038722483,9.914634038722479,221.7961773842117
140.45197740112985,187.1556811338734,10.629479982333258,10.62947998233326,221.78888197282248
139.83050847457628,187.0326590630524,10.824367620243397,10.824367620243397,220.58510615354913
139.2090395480226,186.98049647087552,10.626901424196705,10.626901424196706,220.53297804817063
138.5875706214689,185.67005888800298,10.469861006285731,10.46986100628573,222.33932086305092
137.9661016949152,186.2524709697891,10.422246524771316,10.42224652477131,222.25066524346568
137.34463276836152,186.05908233771856,10.64164310443397,10.641643104433973,222.33323092519944
136.72316384180783,185.76439097146525,10.545899342007576,10.545899342007575,222.55306677978425
136.10169491525414,186.25987509822028,10.42887121807424,10.428871218074242,222.04542343177306
135.48022598870057,188.19303147357738,9.8258988619477,9.825898861947698,222.11142902837366
134.85875706214688,188.34649321286446,9.953411686731561,9.953411686731561,221.18342668861783
134.2372881355932,187.94021241128132,9.935093893146421,9.935093893146425,220.89833748876984
133.6158192090395,188.02157252496596,10.139388519240674,10.139388519240677,222.08051933137688
132.9943502824858,188.23271776873716,9.588277247449472,9.588277247449476,220.98129290804647
132.37288135593212,188.52610120008623,10.192601552847737,10.192601552847742,220.37559921585267
131.75141242937855,188.8011820497789,9.72231724463539,9.72231724463539,221.20826846931482
131.12994350282486,189.2065608297842,9.706586294190542,9.706586294190537,220.9402183546526
130.50847457627117,188.4813982386939,10.015184364281788,10.015184364281785,220.80277703313936
129.88700564971748,188.86399124386708,9.425964159696857,9.425964159696859,220.95953372026472
129.2655367231638,189.14779240032578,9.564176671665647,9.564176671665644,220.84259340969786
128.6440677966101,188.84164279810636,9.634428664213454,9.63442866421345,219.3865621162681
128.0225988700564,188.03544540730488,9.86226932030113,9.86226932030113,220.1164285896245
127.40112994350284,188.47217741023954,9.56522464643816,9.565224646438157,220.23857534293157
126.77966101694915,189.97124558945285,8.793761090992843,8.793761090992847,219.62085823553028
126.15819209039546,189.54615321203977,9.233665021279894,9.233665021279894,219.3332681041587
125.53672316384177,189.37751832160453,9.206682018195286,9.206682018195286,218.77811873072807
124.91525423728808,190.0188431873231,9.17410246963912,9.174102469639124,219.32229806267662
124.29378531073439,190.35816423887042,9.348154070930757,9.348154070930757,219.0233292849574
123.6723163841807,189.75648123900055,9.530935567207896,9.530935567207901,218.52702545080535
123.05084745762713,189.97511369650286,9.908472221379359,9.90847222137936,218.23453120152547
122.42937853107344,190.2650489678438,9.568481091780047,9.568481091780042,218.4432384893092
121.80790960451975,190.1569244221401,10.070114034446451,10.070114034446451,217.94273148366742
121.18644067796606,191.39046377331604,8.564870258225566,8.564870258225566,219.391095617135
120.56497175141237,190.94075219488528,9.089633060931321,9.089633060931321,219.34366224517282
119.94350282485868,192.17287392733132,9.294223577029669,9.294223577029666,217.3955894664409
119.322033898305,190.83470080982053,8.937558791352568,8.937558791352567,218.77446515953253
118.70056497175142,191.11085246147078,8.487851172257413,8.487851172257416,219.1272964294448
118.07909604519773,191.5777107659121,8.940835567230002,8.940835567230002,216.468547428804
117.45762711864404,192.5133243181333,8.990988968314118,8.990988968314115,218.0237339566416
116.83615819209035,191.98434759044906,8.605025758181894,8.605025758181899,218.5219314651988
116.21468926553666,193.10006890061757,8.83770778574045,8.837707785740454,217.01144377131212
115.59322033898297,192.0859447217328,8.8411371575286,8.8411371575286,216.94370660130267
114.97175141242928,192.16105614417535,8.054317438346628,8.054317438346624,217.13803716862753
114.35028248587571,192.75824774820964,8.31801870026456,8.318018700264556,217.02706056662623
113.72881355932202,193.25183095474287,8.636152599384031,8.636152599384033,217.4146762018674
113.10734463276833,193.8096148613136,8.575317327328435,8.575317327328433,217.12079933585616
112.48587570621464,193.20207206363128,8.518518808335173,8.518518808335173,216.57613223049165
111.86440677966095,192.47500363132116,8.120272711356408,8.120272711356412,216.94101581426563
111.24293785310726,193.55724476996954,7.885260869111006,7.885260869111003,216.68693293310992
110.62146892655358,193.59352778829643,8.211489715708986,8.211489715708984,217.16866342857827
110.0,194.47838535043792,8.33326672715514,8.333266727155143,215.07755270228003
109.37853107344631,194.66040323085488,8.639375748805637,8.639375748805636,216.22498382591937
108.75706214689262,194.29616604696236,8.26300070842018,8.26300070842018,217.1816129305792
108.13559322033893,194.91803549782819,8.858060610302093,8.85806061030209,216.03889046616305
107.51412429378524,194.62704085596673,8.235860980199124,8.235860980199119,216.10407550251378
106.89265536723155,194.3798780147773,8.171850005834614,8.171850005834614,215.50387012492078
106.27118644067798,195.2384445511552,8.221019773604844,8.221019773604844,216.21445419731904
105.64971751412429,195.4747919592034,7.8887961135529325,7.888796113552934,214.5202528627157
105.0282485875706,194.65591591695664,8.496211773459903,8.4962117734599,213.93191381570267
104.40677966101691,195.14222724944798,7.702272862198074,7.702272862198079,216.13913287013654
103.78531073446322,194.47576263315153,7.6302713123078805,7.6302713123078805,215.64149538574847
103.16384180790953,195.5550165690468,7.962785730876897,7.962785730876897,215.5455933223462
102.54237288135585,196.69491764217736,7.871395787009877,7.871395787009877,215.89480743289278
101.92090395480227,196.69975715390206,7.60495005640114,7.604950056401137,215.211371811139
101.29943502824858,197.06962417290006,7.6375791428504,7.6375791428504,214.9817911238875
100.67796610169489,195.94313989966824,7.287268136834799,7.287268136834803,215.38722969067777
100.0564971751412,197.4133938374332,7.535452198294009,7.5354521982940135,214.213635862658
99.43502824858751,197.8839754178935,7.294590883122276,7.294590883122276,215.2523643345305
98.81355932203383,197.28650997351588,7.835630207051062,7.835630207051063,214.78439152764415
98.19209039548014,197.0821073555896,7.377529251068719,7.377529251068719,214.4353217487079
97.57062146892656,197.94966072149697,7.278432633779425,7.278432633779429,215.03861239684187
96.94915254237287,198.14804169957003,6.744841631340266,6.744841631340266,214.55490867099627
96.32768361581918,198.5715330767241,7.278766565875278,7.278766565875274,214.90497343200363
95.7062146892655,198.11624761208893,6.821153655989147,6.821153655989147,216.15369013838406
95.0847457627118,199.23942886799603,6.84773157036711,6.847731570367108,214.19134822977296
94.46327683615812,199.24877186268873,7.402707783403885,7.402707783403888,214.77873030333615
93.84180790960443,198.28887838643152,7.339105704426607,7.339105704426613,216.39664274939713
93.22033898305085,199.96510373477068,6.668342858974688,6.668342858974692,215.10852822056668
92.59887005649716,199.91804125150637,6.714670794331211,6.714670794331207,215.88776912571953
91.97740112994347,200.79057055027752,7.172407083748384,7.1724070837483875,214.66548390084975
91.35593220338978,199.76860691118037,6.590844763400837,6.590844763400837,215.01571428933795
90.7344632768361,199.50257799965144,6.990162730032348,6.99016273003235,215.15269297545845
90.1129943502824,200.0912483562417,6.733522576655609,6.733522576655609,213.77557539409509
89.49152542372872,200.99797830518813,5.341158282988789,5.341158282988789,215.93173199034896
88.87005649717514,199.41196559626064,7.186025082627881,7.186025082627886,214.26688583851356
88.24858757062145,201.09287272460648,6.46079486457957,6.46079486457957,213.3298477841647
87.62711864406776,200.23645617669314,7.046030931978446,7.046030931978449,214.93065699426424
87.00564971751407,201.49597348220007,6.5254170366863615,6.525417036686365,212.72736416006003
86.38418079096039,201.82811155616494,6.040680619395065,6.040680619395065,213.55706088747982
85.7627118644067,200.57639331842748,6.763820468132073,6.763820468132073,212.1125697858066
85.14124293785301,202.56514516849435,6.105513302785413,6.1055133027854085,214.32654086775557
84.51977401129943,202.6762671104286,5.7912731976434655,5.7912731976434655,213.68761039931394
83.89830508474574,201.88821001356712,6.213337434268095,6.213337434268089,214.13880987076854
83.27683615819205,202.6377205286735,5.981078328571465,5.981078328571463,212.83358877361908
82.65536723163837,202.6699024055821,6.335920451066216,6.335920451066221,213.42394240070487
82.03389830508468,201.2397188900746,5.856391369809164,5.856391369809164,213.53954133367168
81.41242937853099,202.05983881354422,5.9610438123714875,5.961043812371485,214.16577363406398
80.79096045197741,202.15597305478664,6.10558908105715,6.105589081057143,213.05479631830443
80.16949152542372,201.96274144196343,6.084563204402402,6.084563204402402,213.41691092497226
79.54802259887003,202.60366698611597,5.773269937681499,5.773269937681499,213.42120591937694
78.92655367231635,202.32858628523937,6.610795632578092,6.610795632578088,212.7275911589399
78.30508474576266,202.52536437172887,6.074755528590584,6.074755528590589,213.01113591495547
77.68361581920897,203.16676421847143,5.929766727356682,5.929766727356687,213.2001091131589
77.06214689265528,202.8467251982165,6.631013992495568,6.631013992495563,213.65328761189323
76.4406779661017,202.545673834509,6.208884510931641,6.208884510931637,212.4216907730993
75.81920903954801,202.93488328151054,6.131818683419374,6.131818683419373,213.07823027896424
75.19774011299432,202.7619372950045,5.931468433360106,5.931468433360098,211.91583825270814
74.57627118644064,202.34956114447817,6.464056981411489,6.464056981411489,214.01160014199377
73.95480225988695,203.64665075764654,6.020670024351071,6.020670024351073,212.54969426188435
73.33333333333326,204.43101914343146,5.500148870243163,5.500148870243161,214.66443846243908
72.71186440677957,203.2008797976097,5.917213571303143,5.917213571303143,212.17279691567828
72.090395480226,204.10024636382087,5.8333454109122735,5.833345410912272,212.7710697860585
71.4689265536723,204.69314766585703,5.247796959507809,5.247796959507811,213.51680273322543
70.84745762711862,205.14070815657462,5.358428985516573,5.358428985516574,212.52808368367755
70.22598870056493,203.7938273481553,6.227694344166934,6.227694344166929,212.72321096521986
69.60451977401124,203.941055666963,5.424023124467687,5.424023124467691,212.56343903793308
68.98305084745755,204.75108302560352,4.998834487917447,4.99883448791745,212.7034058697705
68.36158192090386,206.00911654076532,4.947974338215536,4.947974338215536,212.6953286261069
67.74011299435028,205.23540367504447,5.238292622509238,5.238292622509245,213.34311559027086
67.1186440677966,204.57415959501046,5.619364240941164,5.61936424094116,212.38181880338385
66.4971751412429,205.11492024547616,5.679599842187891,5.679599842187895,212.4379565328283
65.87570621468922,205.2071222614295,5.263797970870864,5.263797970870858,214.20367179236143
65.25423728813553,206.19467669473894,5.361699007535583,5.361699007535586,213.16662640415765
64.63276836158184,205.39553966208197,5.228852616450379,5.228852616450377,212.70906375183037
64.01129943502815,204.11681922115233,6.267385068317618,6.267385068317619,210.29676858623768
63.389830508474574,204.44497526326913,5.562597611071937,5.562597611071933,211.52493934839387
62.768361581920885,205.86046784908575,5.533245720295882,5.533245720295887,211.262944245595
62.146892655367196,205.96380694843108,5.317671950316087,5.31767195031609,211.14887648418784
61.52542372881351,205.7839105594385,5.657755780914104,5.657755780914104,210.98943040258294
60.90395480225982,205.58594271287913,5.692348370925424,5.69234837092542,210.96464758914055
60.28248587570613,206.2604035558511,5.452240410837847,5.452240410837847,211.81751431696287
59.661016949152554,205.87749310709205,4.854545678158779,4.854545678158774,212.06557898433286
59.039548022598865,205.61301976246722,5.770168747806715,5.770168747806719,212.71130816730297
58.418079096045176,206.2177922196528,5.343428927888866,5.343428927888868,211.94424689264522
57.79661016949149,206.83685113545155,5.552819297702513,5.552819297702508,211.5377052339093
57.1751412429378,206.20686381838033,4.792219785881937,4.792219785881935,212.59050061119086
56.55367231638411,207.63448181643884,5.629751816452328,5.629751816452323,211.18604895467644
55.93220338983042,206.6962849985441,4.981734284481749,4.981734284481752,212.76184741846308
55.310734463276845,206.52459249931627,5.073374856556704,5.073374856556704,212.21925192442737
54.689265536723155,206.6228521230392,5.66546617809832,5.665466178098325,210.8888788113025
54.06779661016947,206.9295683806451,4.925529732561203,4.925529732561201,212.22277854228494
53.44632768361578,205.99437257630723,5.5063318818714455,5.506331881871443,211.97065239235448
52.82485875706209,206.37785217785515,5.298154229934283,5.298154229934285,209.66995829194545
52.2033898305084,207.15969894891654,5.186580115915011,5.18658011591501,210.7323733146915
51.58192090395471,207.21647524905916,4.881431051396859,4.881431051396859,210.58592716182253
50.960451977401135,206.49181429760148,5.439724162248975,5.439724162248974,210.97312910796458
50.338983050847446,206.01262961256876,5.187936493860486,5.187936493860485,210.97949287619753
49.71751412429376,206.48926635994357,4.591975115048461,4.591975115048457,210.15321729752657
49.09604519774007,207.64200683109846,4.907822361053226,4.907822361053224,210.30547382459437
48.47457627118638,206.6033675207421,5.133692845140467,5.133692845140468,210.87628811482992
47.85310734463269,209.02304888784138,4.785747696019928,4.78574769601993,211.24578497748232
47.231638418079,207.39846002568794,5.470853244851751,5.470853244851751,211.79227599342053
46.610169491525426,210.9100066720442,6.922764843560402,6.922764843560398,211.92494009807254
45.98870056497174,208.2066848063267,4.764007614138874,4.764007614138874,211.44267227042283
45.36723163841805,207.85916634408454,4.914208712606533,4.914208712606536,211.314234988646
44.74576271186436,208.66163745390006,4.775653061728348,4.775653061728348,210.34433570807712
44.12429378531067,208.48531127514153,5.068763803207686,5.068763803207686,211.41511613351025
43.50282485875698,208.1943335283848,4.8117471154897515,4.811747115489752,211.18342545119697
42.88135593220329,208.09979017557467,5.067115429172342,5.067115429172335,211.4760474435167
42.259887005649716,207.30428628480732,4.984854939970117,4.984854939970117,210.81995668569192
41.63841807909603,208.47258218955918,4.320837242368455,4.320837242368452,211.20846383649445
41.01694915254234,208.36596093400522,4.568056018221929,4.568056018221926,210.5993209056508
40.39548022598865,207.54971533922696,5.4523102620736505,5.452310262073644,211.35768768993773
39.77401129943496,208.00380923439792,4.40942117639096,4.409421176390957,211.31102181865847
39.15254237288127,208.36280885371244,4.96929819272743,4.969298192727432,210.7602395970998
38.53107344632758,208.76012172885603,3.9101741566828463,3.9101741566828463,211.25766000505942
37.90960451977401,208.65620996490915,4.986257561780342,4.9862575617803415,211.1350897736271
37.28813559322032,209.1206073033774,3.9048218085192596,3.904821808519255,212.69364597589006
36.66666666666663,209.46440603954278,4.450195892942222,4.450195892942224,211.90836004060336
36.04519774011294,209.47338820647812,4.33761027628549,4.337610276285492,211.18021370848965
35.42372881355925,208.89946028471377,4.577527332364804,4.577527332364804,210.62437102410343
34.80225988700556,208.38513346452794,4.887459570213166,4.887459570213166,210.67147853382752
34.180790960451986,208.4607751189927,4.6997335562719,4.699733556271902,210.14242211137682
33.5593220338983,208.4150027000127,4.692414727438675,4.692414727438672,210.29771035925526
32.93785310734461,211.34139792723133,4.149552888542878,4.14955288854288,210.86684470251075
32.31638418079092,207.99900957453255,3.8855775526137775,3.8855775526137792,211.94366005198356
31.69491525423723,209.1380532162638,4.292737629264596,4.292737629264599,209.58376823069196
31.07344632768354,208.0716429880238,4.699460293215907,4.699460293215907,211.57049022082046
30.451977401129852,208.95159758820935,4.08002144888397,4.0800214488839694,212.58190151997317
29.830508474576277,209.80048163332486,5.178582360336884,5.178582360336884,211.76460081480155
29.209039548022588,209.4265572323991,4.395027354267519,4.395027354267524,211.35733017071828
28.5875706214689,208.8334605238107,4.760361302850737,4.760361302850737,211.22307445675887
27.96610169491521,208.65464543604978,4.17089927641611,4.170899276416107,210.7587504515306
27.34463276836152,209.3179005757772,4.869035983675115,4.869035983675113,210.962317232754
26.723163841807832,209.7339109528557,4.582051810448667,4.582051810448678,210.29986966017884
26.101694915254143,208.4758487008704,4.722314186729633,4.722314186729633,210.56946966151986
25.480225988700568,208.53159380521566,4.818848982696881,4.818848982696887,209.6527810971766
24.85875706214688,209.10877715089072,4.6945125313971205,4.694512531397116,209.6947861828589
24.23728813559319,208.12327009220047,5.0753505680244615,5.075350568024457,210.1363814743934
23.6158192090395,209.97353113032355,4.194142422282301,4.194142422282299,211.71659200043166
22.99435028248581,208.86979969374838,4.499265925892887,4.49926592589289,211.50950746989545
22.372881355932122,208.64198069463686,4.948005876001875,4.948005876001873,211.19611204698407
21.751412429378433,209.1491255979704,3.646777329736584,3.646777329736584,211.180384726471
21.129943502824858,208.90276016032405,3.95465514346536,3.9546551434653536,211.6537118603205
20.50847457627117,210.15592951946215,4.202549039782651,4.202549039782655,211.3530510185516
19.88700564971748,209.28787850181342,4.127319437037844,4.127319437037845,211.59330209043006
19.26553672316379,209.57967384130106,4.355361868056867,4.355361868056872,211.1347924602227
18.644067796610102,209.54293782549158,4.499681435244632,4.499681435244631,210.81057608977008
18.022598870056413,209.1404961415656,4.464564735876637,4.464564735876632,211.7949683888376
17.401129943502724,209.44277596191804,4.2230276249726835,4.2230276249726835,211.6058673446325
16.77966101694915,209.49047540480342,4.566444548572549,4.566444548572551,210.15835769055838
16.15819209039546,208.605814177948,5.028591905313906,5.028591905313903,210.2677938013743
15.53672316384177,209.21583670005646,4.40047238772409,4.40047238772409,211.37717521578475
14.915254237288082,209.67808806471692,4.357368017743552,4.357368017743547,211.34071796192154
14.293785310734393,209.37293597913938,3.8895743924824098,3.8895743924824138,211.83927363298562
13.672316384180704,208.7286309413012,4.490679255822691,4.490679255822694,212.23897304910125
13.050847457627015,209.15427704767367,4.407289060056878,4.407289060056878,211.70416017857985
12.42937853107344,208.85865843048003,4.414385688937263,4.4143856889372595,211.96038366062544
11.80790960451975,209.5178720058924,4.361828967225297,4.361828967225288,210.92427990364007
11.186440677966061,209.09542405273297,4.110036676545432,4.110036676545432,211.0779835763791
10.564971751412372,209.0307066596928,4.246421780770725,4.246421780770728,211.07920135856045
9.943502824858683,208.9774420081878,3.6695852586351547,3.669585258635159,211.56617634937174
9.322033898304994,209.7129424339056,4.054134128701856,4.054134128701854,211.58859402444205
8.700564971751419,209.28755726872268,4.995525942080931,4.995525942080923,211.8717505327659
8.07909604519773,208.6852010959374,3.740266217345887,3.740266217345887,212.23659857083513
7.457627118644041,209.5078873554805,4.474073969900299,4.474073969900304,212.3629724886664
6.836158192090352,210.03385659069684,4.398939682978977,4.398939682978976,212.70879287895434
6.214689265536663,210.4419465895958,3.9623566377384165,3.962356637738421,211.40859937576897
5.593220338982974,209.77333384640778,3.974844202285592,3.974844202285587,212.92756172219063
4.971751412429285,209.6599049653776,3.957765928463581,3.957765928463585,212.3079223197294
4.350282485875709,210.00080719407302,3.581876202031152,3.5818762020311485,212.6540329395419
3.7288135593220204,209.90013036010308,4.154298079480888,4.154298079480888,213.55054591715464
3.1073446327683314,209.86203133252678,4.560601687403998,4.560601687403998,212.63989241127942
2.4858757062146424,209.77852231136654,4.038622219378137,4.038622219378137,211.81822736576166
1.8644067796609534,210.45496535418232,3.587619722280962,3.587619722280958,211.5342912749286
1.2429378531072643,210.22834003235164,4.357599329495091,4.357599329495091,210.23235493692857
0.6214689265535753,210.26774602167546,4.300286375424304,4.300286375424308,212.6442821469668
0.0,210.35975509173392,3.8259376830924503,3.825937683092456,212.14577045167638
